********************************************************************************
Field Output Report, written Thu Oct  6 11:28:15 2016

Source 1
---------

   ODB: /home/lcharleux/Documents/Programmation/Python/Modules/hardness/doc/tutorials/workdir/indentation_2D.odb
   Step: LOADING1
   Frame: Increment     50: Step Time =    1.000

Loc 1 : Nodal values from source 1

Output sorted by column "Node Label".

Field Output reported at nodes for region: I_INDENTER.Region_1
   Computation algorithm: EXTRAPOLATE_COMPUTE_AVERAGE
   Averaged at nodes
   Averaging regions: ODB_REGIONS

             Node            S.S11            S.S22            S.S33            S.S12
            Label           @Loc 1           @Loc 1           @Loc 1           @Loc 1
--------------------------------------------------------------------------------------
                1  -3.14848348E-02  -3.30724418E-02  -3.19109932E-02  -3.49196326E-03
                2  -1.87426258E-03  -2.90362304E-03   5.79288637E-04  -2.17352295E-03
                3  -1.85490478E-06  -2.22739754E-06  -8.44985834E-07  -1.25254712E-06
                4  -1.22278834E-06  -3.74028150E-06  -1.24889880E-06  -6.66349820E-08
                5  -3.20639834E-02  -3.06411088E-02  -3.12877074E-02  -1.33805606E-03
                6  -3.00553106E-02  -2.95163058E-02  -2.95088757E-02  -1.04254181E-03
                7  -2.84145735E-02  -2.80650742E-02  -2.71378085E-02  -1.08091219E-03
                8  -2.69821882E-02  -2.61802040E-02  -2.49633361E-02  -6.22052001E-04
                9  -2.24998724E-02  -2.48932168E-02  -2.13570856E-02  -8.58101528E-04
               10  -1.14724040E-02  -2.22388804E-02  -1.42783979E-02  -1.72687904E-03
               11  -5.71934786E-03  -1.00787152E-02  -6.30027428E-03  -4.95674368E-03
               12  -3.39215389E-03  -2.95328628E-03  -1.91561563E-03  -1.79040781E-03
               13  -2.75330339E-03  -2.15498544E-03  -5.74913109E-04  -1.78122998E-03
               14  -2.46044109E-03  -1.95592525E-03   1.50808119E-04  -1.91010244E-03
               15  -2.05202680E-03  -2.41782051E-03   4.78823087E-04  -2.02263054E-03
               16  -1.66767300E-03  -3.45380697E-03   5.23555733E-04  -2.17593508E-03
               17  -1.47273566E-03  -3.68116633E-03   4.11236018E-04  -2.19949568E-03
               18  -1.41658727E-03  -3.58255534E-03   2.71597964E-04  -2.19133543E-03
               19  -1.31555367E-03  -3.36638745E-03   1.58255934E-04  -2.05326616E-03
               20  -1.00316922E-03  -3.16581200E-03   8.30245917E-05  -1.75568787E-03
               21  -7.70713086E-04  -2.61571491E-03   4.74281569E-06  -1.41516852E-03
               22  -6.52680930E-04  -2.16482324E-03  -2.61369314E-05  -1.18677574E-03
               23  -5.60927030E-04  -1.75479637E-03  -3.60700033E-05  -9.72664915E-04
               24  -4.67102509E-04  -1.40664447E-03  -3.44698565E-05  -7.75650609E-04
               25  -3.80344223E-04  -1.09581708E-03  -2.40801655E-05  -6.02015527E-04
               26  -2.40500493E-04  -8.67956085E-04  -1.59627562E-05  -4.38930350E-04
               27  -1.77278882E-04  -6.09263894E-04  -1.27678322E-05  -3.18950624E-04
               28  -1.30528424E-04  -4.64269338E-04  -1.06808930E-05  -2.33553030E-04
               29  -9.75420116E-05  -3.40543484E-04  -8.16146621E-06  -1.72097527E-04
               30  -7.28346567E-05  -2.47290300E-04  -6.39705104E-06  -1.26122759E-04
               31  -5.43131973E-05  -1.78012284E-04  -5.06219294E-06  -9.14004559E-05
               32  -3.97698968E-05  -1.26989515E-04  -3.59828846E-06  -6.66599153E-05
               33  -2.80582972E-05  -8.95949488E-05  -1.93465348E-06  -4.54920664E-05
               34  -1.85597746E-05  -6.39291684E-05  -1.09398275E-06  -3.12798365E-05
               35  -1.32236601E-05  -4.42220698E-05  -9.08875847E-07  -2.23250681E-05
               36  -1.02931172E-05  -2.93839639E-05  -5.87564784E-07  -1.62271426E-05
               37  -5.41975214E-06  -2.19163740E-05  -4.15677846E-07  -1.04963310E-05
               38  -3.58171246E-06  -1.39664135E-05  -2.71899978E-07  -7.05672119E-06
               39  -2.58678210E-06  -9.62748891E-06  -1.36421363E-07  -4.81206280E-06
               40  -1.85675344E-06  -6.65139578E-06  -2.91121047E-08  -3.32204809E-06
               41  -1.41844271E-06  -4.36280288E-06   4.54636755E-08  -2.19393564E-06
               42  -1.09918619E-06  -3.17346257E-06  -3.54752331E-07  -1.65365429E-06
               43  -1.69677264E-06  -2.60635738E-06  -9.66463404E-07  -9.39313736E-07
               44  -1.47236733E-06  -3.12739166E-06  -1.05305287E-06  -7.83517635E-07
               45  -1.36701772E-06  -3.49940638E-06  -1.23102268E-06  -3.20154527E-07
               46  -6.07663821E-07  -4.72297097E-06  -8.65195091E-07   8.68765611E-08
               47   8.17159886E-08  -6.69021392E-06  -3.19583449E-07  -4.19505398E-07
               48   4.10315209E-07  -9.47786430E-06  -4.52705535E-08  -2.10633374E-07
               49   8.17605041E-07  -1.41757509E-05   1.84799788E-07  -4.01320818E-07
               50   2.40427710E-07  -2.07171179E-05   2.30251828E-07  -2.33131368E-06
               51  -3.20312381E-07  -3.04755431E-05   2.26715997E-07  -2.08481333E-06
               52  -1.39799681E-07  -4.37232920E-05   2.38227116E-07  -2.94537995E-06
               53   1.24637188E-06  -6.07191032E-05   3.61123341E-07  -3.73463649E-06
               54   3.49937886E-06  -8.87543138E-05   8.06797857E-07  -6.15420504E-06
               55   2.42965598E-07  -1.26413186E-04   1.34614970E-06  -1.45073391E-05
               56  -2.53967733E-06  -1.83395459E-04   3.02442413E-06  -1.11933387E-05
               57  -3.65446112E-06  -2.62030866E-04   4.73360933E-06  -1.40029679E-05
               58  -2.91769175E-06  -3.63046624E-04   6.33230047E-06  -2.07715111E-05
               59  -3.33709977E-06  -4.95562330E-04   8.44690203E-06  -3.13202727E-05
               60  -7.48826778E-06  -6.63619430E-04   1.13349433E-05  -4.13266644E-05
               61   4.75123397E-06  -8.81349028E-04   1.76727826E-05  -4.14918177E-05
               62   1.90108403E-06  -1.16347685E-03   1.92375192E-05  -7.45460711E-05
               63   3.13092278E-05  -1.53954746E-03   2.82980873E-05  -6.92669710E-05
               64   5.11256403E-05  -1.94499176E-03   3.99652272E-05  -1.18277312E-04
               65   1.75690711E-05  -2.53199879E-03   7.66740995E-05  -1.31000459E-04
               66   1.46643924E-06  -3.27370549E-03   1.31132576E-04  -2.74072154E-05
               67   2.40642439E-05  -4.07874258E-03   1.78267757E-04  -1.49862695E-04
               68   7.84728763E-05  -4.98434715E-03   2.48845317E-04  -8.82123131E-05
               69   2.11677252E-04  -6.05172478E-03   3.40914528E-04  -1.53394212E-05
               70   4.63848060E-04  -7.45947333E-03   4.17956500E-04  -2.96829443E-04
               71   3.42614192E-04  -8.65725055E-03   4.39818774E-04  -4.87782469E-04
               72   3.60921898E-04  -1.03047360E-02   5.09937294E-04  -1.87774815E-04
               73   3.72582406E-04  -1.22284656E-02   5.19187422E-04  -2.64829083E-04
               74   2.72451231E-04  -1.41504109E-02   3.58459802E-04  -4.27159190E-04
               75   5.79837288E-05  -1.64070465E-02   3.48849208E-05  -6.69308007E-04
               76  -7.44696590E-04  -1.88665316E-02  -6.59973186E-04  -1.07259140E-03
               77  -2.12538405E-03  -2.15982590E-02  -1.97667768E-03  -8.42610025E-04
               78  -4.02649026E-03  -2.46203132E-02  -4.14475426E-03  -9.32478812E-04
               79  -7.39931315E-03  -2.75585707E-02  -7.96074234E-03  -1.25124713E-03
               80  -1.23548359E-02  -2.93549914E-02  -1.31457867E-02  -1.26978057E-03
               81  -1.92400850E-02  -3.02334521E-02  -1.97291449E-02  -1.27662194E-03
               82  -2.64152214E-02  -3.29508483E-02  -2.77690627E-02  -1.69872213E-03
               83  -1.12210494E-03  -1.01267956E-02   3.42062471E-04  -4.39452101E-03
               84  -3.47418885E-04  -5.67488698E-03   3.10030417E-04  -1.85732334E-03
               85  -4.21132846E-03  -2.12912764E-02  -3.95395188E-03  -4.97151865E-03
               86  -2.43724557E-04  -2.98662460E-03   6.57108321E-05  -9.58099088E-04
               87  -3.86705069E-05  -1.13736726E-02   4.51313390E-04  -2.55691446E-03
               88  -1.22753426E-03  -5.83498506E-03   3.81044927E-04  -3.10292188E-03
               89  -9.03288092E-05  -1.54834474E-03   7.44563840E-06  -4.09696862E-04
               90  -4.06019343E-03  -9.42136440E-03  -9.60460573E-04  -6.06798939E-03
               91  -9.49505134E-04  -1.72182601E-02  -5.14737214E-04  -3.43187153E-03
               92  -2.05773977E-03  -5.94013650E-03   4.32807050E-04  -3.82582471E-03
               93  -5.66777526E-05  -8.83446075E-04   2.42968031E-06  -2.31286947E-04
               94  -5.17622102E-04  -3.47057660E-03   1.06641848E-04  -1.43313303E-03
               95  -1.26895458E-02  -2.83342768E-02  -1.32801160E-02  -1.64874061E-03
               96  -2.63447746E-05  -4.66246041E-04   1.15314083E-06  -1.23100064E-04
               97   1.03209735E-04  -7.93397799E-03   4.25742328E-04  -1.67099433E-03
               98   2.81105513E-05  -5.23371808E-03   2.26894772E-04  -8.91249801E-04
               99  -7.34724978E-04  -8.23277235E-03   4.41443321E-04  -3.26288515E-03
              100  -1.33510366E-05  -2.58723303E-04   2.11317911E-07  -6.78127690E-05
              101  -5.06170772E-06  -1.40509670E-04   1.00152567E-06  -4.34563008E-05
              102  -5.21779899E-03  -1.48631651E-02  -3.81926424E-03  -6.94179209E-03
              103  -1.89121882E-03  -1.44824609E-02  -5.79718617E-04  -5.33800386E-03
              104  -5.79624430E-06  -7.18783631E-05   1.17479750E-07  -1.57446266E-05
              105  -3.18216998E-03  -2.30421387E-02  -3.20381345E-03  -2.70372117E-03
              106  -2.61448577E-06  -3.02224908E-05  -1.47615509E-07  -9.02264674E-06
              107  -1.43361899E-06  -1.52050052E-05   6.87423594E-08  -4.37147037E-06
              108  -1.21855224E-02  -2.69787032E-02  -1.36440117E-02  -2.81224679E-03
              109  -3.31982097E-04  -1.55950449E-02  -1.29554392E-05  -2.13498576E-03
              110  -1.72052097E-07  -7.07868185E-06   3.36509238E-08  -2.04646517E-06
              111  -9.05722962E-04  -3.92484106E-03   1.61971198E-04  -1.97761389E-03
              112  -1.99473836E-03  -5.13444794E-03   4.11762740E-04  -3.81892617E-03
              113  -2.08969839E-04  -1.96282845E-03   1.16004103E-05  -7.73003965E-04
              114  -6.72790484E-05  -2.47693597E-03   4.66490856E-05  -4.71840787E-04
              115   3.51127557E-04  -1.08944979E-02   4.78440284E-04  -1.14043034E-03
              116  -1.37405482E-03  -7.44032720E-03   4.37149894E-04  -3.85049987E-03
              117   1.92117659E-04  -6.45251526E-03   2.98410101E-04  -8.92358774E-04
              118  -5.65215829E-04  -1.25505123E-02   2.84122856E-04  -3.08792456E-03
              119  -1.70961150E-03  -4.70123999E-03   4.05551633E-04  -3.12211667E-03
              120  -1.06156850E-03  -3.77647160E-03   1.75473368E-04  -2.07532570E-03
              121  -2.67939668E-05  -1.12312299E-03   1.10314104E-05  -1.96562367E-04
              122  -2.71883891E-07  -8.95185531E-06   1.39257253E-07  -2.23638108E-06
              123  -4.61708005E-05  -8.61697271E-03   4.51860862E-04  -2.23163189E-03
              124  -8.28792434E-03  -2.69581787E-02  -7.90554192E-03  -1.04858342E-03
              125  -4.19518724E-03  -6.05253456E-03  -9.48909670E-04  -6.51168078E-03
              126  -3.30021339E-06  -4.17286028E-05  -1.34880125E-07  -1.23607488E-05
              127  -4.33346111E-04  -2.48207920E-03   2.51985457E-05  -1.13936351E-03
              128  -2.01250915E-03  -9.23747011E-03   1.84666613E-04  -5.09466976E-03
              129  -8.63842899E-07  -4.20979632E-06  -6.57895328E-07  -1.09371672E-06
              130  -1.14479597E-04  -1.04368222E-03  -2.98689156E-06  -3.72297451E-04
              131  -2.15725154E-02  -3.09675112E-02  -2.20909342E-02   2.99884472E-04
              132  -2.73019192E-04  -4.45031375E-03   1.96011359E-04  -1.38619938E-03
              133  -7.02114858E-06  -6.71558373E-04   8.59358261E-06  -9.76211668E-05
              134  -6.31920702E-04  -5.86581882E-03   3.31725256E-04  -2.35083839E-03
              135  -8.82280699E-04  -1.89751629E-02  -8.06635770E-04  -1.79634627E-03
              136  -2.25498690E-03  -1.95769668E-02  -1.81599427E-03  -4.45671985E-03
              137   3.02826575E-05  -1.85866468E-03   2.79894994E-05  -2.43644681E-04
              138  -3.63037712E-03  -1.46384072E-02  -1.87211740E-03  -6.25267811E-03
              139   2.29521887E-04  -1.21084116E-02   4.50140302E-04  -8.99816223E-04
              140  -1.87494379E-06  -1.89626880E-04   2.84151838E-06  -2.57465981E-05
              141  -3.35413461E-06  -3.67505767E-04   4.47262528E-06  -5.07325167E-05
              142  -8.99846564E-05  -5.34830964E-04  -6.73224577E-06  -2.21087612E-04
              143  -7.01225596E-04  -9.52334516E-03   4.30901477E-04  -3.61493370E-03
              144  -2.73414282E-03  -5.47754206E-03   1.54812689E-04  -4.41623339E-03
              145  -1.88285089E-03  -4.14223736E-03   4.92295774E-04  -2.98660039E-03
              146  -8.27278243E-04  -1.34903379E-02   7.33617926E-05  -4.06065676E-03
              147  -2.62109155E-04  -1.37108145E-03  -1.33608364E-05  -6.09157141E-04
              148  -1.09414766E-02  -2.19578408E-02  -1.18709337E-02  -2.74255243E-03
              149  -4.83395597E-05  -2.90303142E-04  -3.98901420E-06  -1.20428507E-04
              150   3.79133242E-04  -8.53751414E-03   4.36871138E-04  -7.98509223E-04
              151  -2.50493285E-05  -1.54758847E-04  -2.26213479E-06  -6.42242740E-05
              152  -6.64768158E-05  -3.60294222E-03   1.12945840E-04  -7.97579356E-04
              153  -6.96218107E-03  -2.53893770E-02  -6.80110790E-03  -3.22527438E-03
              154  -5.58642284E-07  -4.49605386E-06  -1.84713983E-07  -1.58993475E-06
              155  -1.60676625E-03  -5.91724226E-03   4.18227370E-04  -3.51298647E-03
              156  -1.32690892E-02  -2.94360258E-02  -1.37559744E-02  -6.73162402E-04
              157  -2.70805231E-06  -2.09329355E-05  -1.49995785E-07  -7.53551876E-06
              158   2.15821201E-05  -6.28915802E-03   3.25438392E-04  -1.28336437E-03
              159  -7.50730669E-06  -8.86625028E-04   1.21415096E-05  -1.13137445E-04
              160  -9.56651456E-06  -8.02022259E-05  -3.87837758E-07  -2.86050417E-05
              161  -6.86733285E-04  -4.88995109E-03   2.49215722E-04  -2.03899713E-03
              162  -2.93037101E-06  -1.21379257E-04   1.32868820E-06  -2.46725322E-05
              163  -5.48572018E-07  -1.98802918E-05   1.58271874E-07  -3.86024612E-06
              164  -7.89541227E-04  -3.24783986E-03   7.77880414E-05  -1.64227223E-03
              165   7.89446131E-05  -4.23322665E-03   1.68855608E-04  -4.21589939E-04
              166  -4.05404717E-03  -5.84943872E-03  -2.18135561E-03  -5.73462294E-03
              167  -1.38836433E-04  -2.44892854E-03   3.40855186E-05  -6.38059922E-04
              168   1.61690507E-04  -5.38918469E-03   2.42771712E-04  -4.97528061E-04
              169  -1.97396890E-04  -8.09846446E-04  -1.28450538E-05  -3.73722141E-04
              170  -4.08947653E-06  -4.97865549E-04   6.15443150E-06  -7.11069224E-05
              171  -1.29817613E-06  -5.84068548E-05   1.66828627E-07  -8.66112714E-06
              172  -8.80603352E-07  -4.36920054E-05   6.50501164E-08  -6.66987626E-06
              173  -3.48461326E-04  -9.53031424E-03   4.42348741E-04  -2.93850643E-03
              174   1.82751464E-04  -9.82552487E-03   4.91473067E-04  -1.99850113E-03
              175  -5.87332621E-03  -2.05834899E-02  -5.99730341E-03  -5.17719751E-03
              176  -2.35771830E-03  -2.22591441E-02  -2.37349514E-03  -1.50029268E-03
              177  -1.77181039E-06  -1.07269061E-05  -3.76153118E-08  -4.28914700E-06
              178  -2.52247602E-03  -1.13313925E-02  -3.60341743E-04  -5.76588325E-03
              179  -5.10837708E-07  -1.62505228E-02   1.80230563E-06  -1.17225619E-03
              180  -3.05938283E-06  -2.68942124E-04   3.44775981E-06  -3.62458413E-05
              181  -1.09233090E-03  -7.10390508E-03   4.29081440E-04  -3.38465767E-03
              182  -9.90854111E-04  -4.75566927E-03   2.63153925E-04  -2.34623160E-03
              183  -3.23788216E-03  -7.79327191E-03  -1.07561144E-04  -5.37290750E-03
              184  -4.50268621E-03  -2.50482876E-02  -4.57156543E-03  -1.28965452E-03
              185  -1.09495272E-06  -3.48546791E-06  -6.62280115E-07  -1.17665309E-06
              186  -6.63055456E-04  -2.72923545E-03   2.30846235E-05  -1.36787642E-03
              187  -2.11160555E-02  -2.69336123E-02  -2.08293889E-02  -2.30792706E-04
              188  -4.66501835E-04  -1.92880630E-03  -1.87676051E-05  -9.48379515E-04
              189  -1.58728479E-04  -6.74850121E-03   3.73555929E-04  -1.79420575E-03
              190  -4.37050563E-04  -7.31587177E-03   4.07450745E-04  -2.50514667E-03
              191  -2.26436239E-02  -2.90181264E-02  -2.25794762E-02  -3.32049123E-04
              192  -2.63799127E-04  -3.59828328E-03   1.16527837E-04  -1.16124237E-03
              193   3.95750569E-04  -7.14753242E-03   3.73486779E-04  -4.70457016E-04
              194   1.30209592E-05  -1.48868409E-03   2.06200748E-05  -1.81252806E-04
              195  -4.28005442E-04  -1.50122456E-02   1.90830178E-05  -3.14222998E-03
              196  -6.55597178E-05  -3.93568538E-04  -4.85857254E-06  -1.62420270E-04
              197  -3.98044023E-07  -5.92747028E-06  -2.95446938E-07  -1.06369077E-06
              198  -8.54360587E-06  -5.11692851E-05  -6.18726688E-07  -2.20145666E-05
              199  -1.62255240E-03  -8.10967200E-03   3.89303372E-04  -4.39019967E-03
              200  -1.65665333E-05  -1.11913803E-04  -1.02604702E-06  -4.49785803E-05
              201  -1.64128561E-03  -2.00346075E-02  -1.47195882E-03  -3.20924562E-03
              202  -1.18546950E-06  -7.72926978E-06   3.17906270E-08  -3.08100698E-06
              203  -2.83481996E-03  -1.76339205E-02  -1.81109377E-03  -5.52990707E-03
              204  -1.50370353E-04  -1.30787715E-02   3.22096690E-04  -2.72067613E-03
              205   3.68009089E-04  -1.41339805E-02   3.48723115E-04  -8.90123891E-04
              206  -3.84217151E-03  -2.29484141E-02  -3.86772421E-03  -4.01145266E-03
              207  -2.95868638E-04  -2.32939236E-03   2.50765643E-05  -8.68577685E-04
              208  -3.60776103E-05  -2.13000632E-04  -3.40073370E-06  -8.81033484E-05
              209  -4.84873162E-05  -1.29811163E-03   9.76805768E-06  -3.12916469E-04
              210  -3.39865460E-06  -2.98231771E-05  -3.47658158E-07  -1.16700694E-05
              211  -1.40057120E-03  -1.19072413E-02   7.04440463E-05  -4.84375097E-03
              212  -4.83188982E-04  -1.12725049E-02   3.67606815E-04  -3.19317309E-03
              213   3.04343230E-05  -2.88849464E-03   8.46763432E-05  -3.98650183E-04
              214  -9.66252119E-04  -8.89171101E-03   4.36860428E-04  -3.88822681E-03
              215  -8.34858014E-08  -9.01336352E-06   7.02752772E-08  -9.98649739E-07
              216  -1.46108412E-03  -4.08030627E-03   4.10092325E-04  -2.53579090E-03
              217  -1.85768923E-03  -3.73567082E-03   5.30252233E-04  -2.87919957E-03
              218  -1.32061192E-04  -6.98054093E-04  -9.32188595E-06  -2.98111350E-04
              219  -7.45872530E-05  -5.40070655E-03   2.73014972E-04  -1.34196808E-03
              220  -2.33578794E-06  -1.49818561E-05  -1.16595672E-07  -6.17632622E-06
              221  -1.20521236E-05  -2.20930809E-03   3.90829882E-05  -3.04318324E-04
              222  -8.97191228E-07  -4.35787297E-06  -9.15586213E-07  -4.71437090E-07
              223  -7.43969431E-05  -3.01333377E-03   6.63586688E-05  -7.19752628E-04
              224  -7.19236198E-07  -8.19748602E-05   6.07235620E-07  -1.20520117E-05
              225  -9.13546304E-04  -1.70889180E-02  -3.86996835E-04  -2.57914816E-03
              226  -1.47190050E-03  -1.63280331E-02  -6.31741364E-04  -4.48870892E-03
              227  -1.30819133E-03  -3.94193828E-03   2.88443000E-04  -2.27416586E-03
              228  -2.55063316E-03  -3.56331561E-03  -9.74816248E-06  -3.16578220E-03
              229  -7.58405690E-07  -3.07835835E-05   1.15234968E-07  -4.88031765E-06
              230   4.72220941E-04  -1.05691049E-02   4.95480315E-04  -5.55164879E-04
              231   2.04399548E-04  -1.12557840E-02   4.84877382E-04  -1.89579930E-03
              232  -6.03058550E-04  -4.13719844E-03   1.72731379E-04  -1.71031849E-03
              233  -2.17164028E-03  -4.65983432E-03   4.45845944E-04  -3.48481908E-03
              234  -3.54666001E-04  -1.63330277E-03  -1.77738020E-05  -7.79000577E-04
              235  -1.99987460E-02  -2.49160081E-02  -1.93332415E-02   9.15520766E-04
              236  -2.77917851E-02  -3.12037058E-02  -2.78092343E-02  -2.76455918E-04
              237   1.52193252E-07  -1.16090011E-03   1.52223638E-05  -1.42360135E-04
              238  -3.64923128E-03  -6.05639862E-03  -4.09674685E-04  -4.97203926E-03
              239  -7.96192637E-07  -5.61654497E-06   2.17504343E-08  -2.22515882E-06
              240  -3.06556257E-03  -3.96763021E-03  -7.35463458E-04  -3.92121030E-03
              241   3.39980004E-04  -6.24053599E-03   3.25898087E-04  -1.78695031E-04
              242   3.86946631E-05  -3.44730192E-03   1.22268044E-04  -3.52767616E-04
              243  -1.40043517E-06  -2.85698979E-06  -7.46409569E-07  -1.32602133E-06
              244  -2.40961835E-03  -6.07062504E-03   3.48129630E-04  -4.28710924E-03
              245  -5.26897747E-06  -5.56897066E-05  -1.78021835E-07  -1.65074634E-05
              246  -7.69471517E-04  -1.11040724E-02   3.33650183E-04  -3.96496477E-03
              247  -8.17946624E-04  -8.20128992E-03   4.51041647E-04  -3.49836098E-03
              248  -7.56673701E-03  -2.50563156E-02  -8.21789354E-03  -3.69213079E-03
              249  -3.34457254E-05  -6.36996469E-04   1.53431165E-06  -1.69345381E-04
              250  -1.44699181E-04  -1.89459429E-03   1.38947662E-05  -5.66535338E-04
              251  -1.33439188E-03  -4.52028494E-03   3.07053560E-04  -2.60533858E-03
              252  -4.37454408E-04  -2.90354621E-03   5.72026838E-05  -1.21634989E-03
              253  -4.75982716E-03  -1.87340900E-02  -3.66319483E-03  -5.14465617E-03
              254   3.23676853E-04  -9.27878544E-03   4.77813417E-04  -1.44676818E-03
              255  -7.48601416E-03  -2.78059319E-02  -8.01297277E-03  -8.56970670E-04
              256  -5.99542636E-06  -3.62308674E-05  -3.74599068E-07  -1.53394431E-05
              257  -2.02886295E-02  -3.07515264E-02  -2.07664296E-02  -3.79107601E-04
              258  -1.83642674E-02  -2.94175632E-02  -1.82657130E-02  -5.33754879E-04
              259  -5.53039172E-07  -1.24210683E-05   1.29488797E-07  -2.74147942E-06
              260  -5.10860234E-04  -4.91222646E-03   2.51088990E-04  -1.87353604E-03
              261   1.74203538E-04  -7.22508878E-03   3.71935079E-04  -1.17475819E-03
              262  -2.06425693E-03  -3.54675762E-03   3.86857137E-04  -2.87080510E-03
              263  -5.75151015E-03  -2.54832450E-02  -5.60093252E-03  -2.31827423E-03
              264  -5.77878731E-04  -2.27095559E-03  -7.48275215E-06  -1.14556262E-03
              265  -1.93034084E-05  -3.47154622E-04   5.15986301E-07  -9.09504888E-05
              266  -8.56688348E-06  -1.86395831E-04   8.66315702E-07  -4.89754093E-05
              267   4.75512556E-04  -1.23826927E-02   4.85157769E-04  -6.38412370E-04
              268  -7.77339446E-04  -7.06150290E-03   4.17646952E-04  -2.96489708E-03
              269  -1.04433093E-02  -2.74350643E-02  -1.01877358E-02  -1.65543519E-03
              270  -1.69603969E-04  -1.19663763E-03  -9.18344085E-06  -4.76000510E-04
              271  -1.17630782E-06  -3.77853416E-06  -9.30008582E-07  -7.38997471E-07
              272   2.21322171E-05  -5.91627788E-03   2.71354365E-04  -9.69056389E-04
              273  -2.24033574E-05  -4.34832554E-03   1.68475279E-04  -8.43576272E-04
              274  -7.12820380E-09  -1.32544710E-05   1.91293324E-07  -1.51331960E-06
              275  -7.09714275E-03  -1.12388767E-02  -5.63420402E-03  -6.92228461E-03
              276  -6.80651050E-04  -8.16992670E-03   4.33173816E-04  -2.96715414E-03
              277  -1.05414051E-03  -3.79032176E-03   1.95365239E-04  -2.08239467E-03
              278   5.78370709E-05  -1.02953650E-02   4.77625435E-04  -2.59607821E-03
              279  -5.34622464E-03  -8.69611092E-03  -1.97990937E-03  -6.88296417E-03
              280  -9.19576676E-04  -5.84419258E-03   3.52996663E-04  -2.71048211E-03
              281   1.65308345E-04  -1.32895159E-02   3.57986544E-04  -1.73071108E-03
              282  -2.69000344E-02  -3.00866291E-02  -2.66793799E-02  -4.99346934E-05
              283  -1.47384061E-02  -2.90603191E-02  -1.60009824E-02  -2.04270519E-03


