********************************************************************************
Field Output Report, written Thu Oct  6 11:47:16 2016

Source 1
---------

   ODB: /home/lcharleux/Documents/Programmation/Python/Modules/hardness/doc/tutorials/workdir/indentation_2D.odb
   Step: LOADING2
   Frame: Increment     50: Step Time =    1.000

Loc 1 : Nodal values from source 1

Output sorted by column "Node Label".

Field Output reported at nodes for part: I_SAMPLE
   Computation algorithm: EXTRAPOLATE_COMPUTE_AVERAGE
   Averaged at nodes
   Averaging regions: ODB_REGIONS

             Node            S.S11            S.S22            S.S33            S.S12
            Label           @Loc 1           @Loc 1           @Loc 1           @Loc 1
--------------------------------------------------------------------------------------
                1  -9.60108917E-03  -7.06395716E-04  -1.02175251E-02  -3.00904561E-04
                2  -1.60249183E-05  -1.90696423E-03   6.03256631E-05   8.35952233E-06
                3   5.43659480E-05   7.92818260E-04   9.61471000E-04   2.03632226E-04
                4  -8.10254458E-03   4.15511022E-04   2.54659308E-03   1.22374273E-04
                5   2.37046363E-04   6.56932476E-04   2.38571447E-04  -3.02532353E-05
                6  -1.25496602E-03   2.04632634E-05   3.12201388E-04   8.81568121E-05
                7   7.74927322E-09   3.04430223E-08   7.94307198E-09  -1.01196918E-09
                8  -1.85686737E-08  -4.94886709E-09  -5.50625057E-09  -4.35199765E-10
                9  -1.08049810E-02  -7.38620758E-04  -1.07357036E-02  -7.75037857E-04
               10  -1.14257857E-02  -1.38378539E-03  -1.13209812E-02  -7.28049417E-05
               11  -1.17871985E-02  -1.84233428E-03  -1.18091255E-02  -5.29895537E-04
               12  -1.19474400E-02  -2.15894426E-03  -1.19305197E-02  -3.45939698E-05
               13  -1.14188828E-02  -2.51634093E-03  -1.14038363E-02  -4.52894950E-04
               14  -1.06721148E-02  -2.81031663E-03  -1.06645543E-02  -4.31890112E-05
               15  -9.68286302E-03  -3.05346423E-03  -9.66100395E-03  -2.95857084E-04
               16  -8.62638559E-03  -3.25685833E-03  -8.62917677E-03  -6.00221756E-05
               17  -7.44984858E-03  -3.35677294E-03  -7.42737763E-03  -1.74336688E-04
               18  -6.23812247E-03  -3.37588275E-03  -6.23638090E-03  -4.25838189E-05
               19  -4.97833872E-03  -3.26550100E-03  -4.96148644E-03  -7.41098484E-05
               20  -3.70258535E-03  -3.05543584E-03  -3.70530412E-03  -9.96318340E-06
               21  -2.41651060E-03  -2.73061870E-03  -2.41012475E-03  -7.16892646E-06
               22  -1.12972292E-03  -2.32141372E-03  -1.14627648E-03   9.30224451E-06
               23  -6.08785922E-06  -1.89418264E-03   9.29117232E-06   1.10292560E-04
               24  -3.97056283E-07  -1.87347364E-03   1.13610949E-05   2.40133013E-04
               25   2.34218314E-05  -1.81528530E-03   8.78174906E-05   3.65683518E-04
               26   6.63159517E-05  -1.75133452E-03   1.82328033E-04   4.86792123E-04
               27   1.17637661E-04  -1.67672546E-03   2.87152274E-04   6.07111375E-04
               28   1.90101215E-04  -1.56578445E-03   4.05272469E-04   7.31602311E-04
               29   2.68353586E-04  -1.42999087E-03   5.51495934E-04   8.67604045E-04
               30   3.68352630E-04  -1.27495220E-03   7.31904933E-04   9.91471927E-04
               31   4.59086936E-04  -1.11095735E-03   9.64774226E-04   1.13797607E-03
               32   5.60666085E-04  -8.91882344E-04   1.20472640E-03   1.27024064E-03
               33   7.00133503E-04  -6.44233078E-04   1.45277858E-03   1.41435431E-03
               34   7.95111293E-04  -3.88720742E-04   1.74214260E-03   1.56075356E-03
               35   9.17692319E-04  -1.76970672E-04   1.99394114E-03   1.66002091E-03
               36   9.96294431E-04   6.00909407E-05   2.16393126E-03   1.72282394E-03
               37   9.70939582E-04   2.72454228E-04   2.29447405E-03   1.76563731E-03
               38   8.46311566E-04   5.09376230E-04   2.30657239E-03   1.73262460E-03
               39   6.93172333E-04   7.91056431E-04   2.20323075E-03   1.61817134E-03
               40   5.71058772E-04   9.37859644E-04   2.09761760E-03   1.49664620E-03
               41   4.73939523E-04   1.00524176E-03   1.98882143E-03   1.38008711E-03
               42   3.80496669E-04   1.07548980E-03   1.87995983E-03   1.25664240E-03
               43   2.81974266E-04   1.15203694E-03   1.77146553E-03   1.13193982E-03
               44   2.20235859E-04   1.18430366E-03   1.67153031E-03   1.00276398E-03
               45   1.74394227E-04   1.18684093E-03   1.57270976E-03   8.76916747E-04
               46   1.29099732E-04   1.18004531E-03   1.48145296E-03   7.62097014E-04
               47   9.72075723E-05   1.15977414E-03   1.40203605E-03   6.63305167E-04
               48   8.15393869E-05   1.12509553E-03   1.32359320E-03   5.66695584E-04
               49   7.12543551E-05   1.07488711E-03   1.24342577E-03   4.76700079E-04
               50   6.37077610E-05   1.01619947E-03   1.16689759E-03   3.96260613E-04
               51   6.10443749E-05   9.51668713E-04   1.09503721E-03   3.25782254E-04
               52   6.23858214E-05   8.78907274E-04   1.02565193E-03   2.64982518E-04
               53  -4.42765486E-05   8.83863657E-04   1.08128041E-03   2.51705002E-04
               54  -1.80802497E-04   9.82331694E-04   1.21632894E-03   2.92354554E-04
               55  -3.37186939E-04   1.08035840E-03   1.36605988E-03   3.23254470E-04
               56  -5.34463965E-04   1.18466583E-03   1.52508798E-03   3.34763405E-04
               57  -7.66476151E-04   1.28056633E-03   1.69213931E-03   3.26488254E-04
               58  -1.01487630E-03   1.34573807E-03   1.86795671E-03   2.93123740E-04
               59  -1.31089962E-03   1.36881426E-03   2.04446842E-03   2.51883408E-04
               60  -1.65246776E-03   1.30174076E-03   2.21415563E-03   2.11281018E-04
               61  -2.07417062E-03   1.17093138E-03   2.38657277E-03   1.89284765E-04
               62  -2.57107802E-03   9.33310774E-04   2.55237008E-03   1.89881015E-04
               63  -3.28373164E-03   6.31863018E-04   2.66205263E-03   2.85490503E-04
               64  -4.26712632E-03   3.57448647E-04   2.70796428E-03   4.57174319E-04
               65  -5.52046439E-03   2.05518198E-04   2.73415237E-03   5.28492907E-04
               66  -7.02356547E-03   6.41742663E-05   2.73693749E-03   3.97947471E-04
               67  -8.54756497E-03   4.76934511E-04   2.19921465E-03  -1.32769259E-04
               68  -8.94355774E-03   5.30358986E-04   1.53323670E-03  -2.61344976E-04
               69  -9.29943845E-03   5.36743551E-04   8.94945872E-04  -2.69354670E-04
               70  -9.60395485E-03   5.12187544E-04   3.07334063E-04  -3.11237207E-04
               71  -9.85000748E-03   5.14287851E-04  -2.31903701E-04  -3.40949569E-04
               72  -1.00429952E-02   5.11750579E-04  -6.85434905E-04  -3.70768423E-04
               73  -1.01637766E-02   5.11965132E-04  -1.00115722E-03  -3.97971511E-04
               74  -1.01779979E-02   5.39728790E-04  -1.13521586E-03  -4.18949843E-04
               75  -1.01612490E-02   6.56717224E-04  -1.01524161E-03  -4.08899301E-04
               76  -1.00155491E-02   8.69864947E-04  -6.20728359E-04  -4.09151486E-04
               77  -9.69786383E-03   1.21707283E-03   6.42572704E-05  -4.82201489E-04
               78  -9.17964242E-03   1.62129640E-03   1.03969756E-03  -7.27400649E-04
               79  -8.64829402E-03   1.68100977E-03   2.52816710E-03  -1.03287725E-03
               80  -6.76735351E-03   2.25303764E-03   2.29417346E-03  -4.07212786E-03
               81  -3.68598383E-03  -1.61432195E-04  -1.03502988E-03  -5.03700785E-03
               82  -2.51049642E-03  -4.01176792E-03  -2.99966149E-03  -4.98369057E-03
               83  -3.19797173E-03  -3.63291218E-03  -2.08399119E-03  -3.36179184E-03
               84  -3.56464949E-03  -2.09371164E-03  -1.88399991E-03  -1.60873064E-03
               85  -3.97225330E-03  -1.18539389E-03  -3.43488669E-03  -1.54320616E-03
               86  -4.52329917E-03  -1.37689628E-03  -4.83698584E-03  -1.93972222E-03
               87  -5.45970723E-03  -1.33066485E-03  -5.47620188E-03  -1.70951616E-03
               88  -6.16306160E-03  -9.92526882E-04  -6.79365080E-03  -1.88311585E-03
               89  -7.02277012E-03  -1.18607853E-03  -7.50180520E-03  -1.83878257E-03
               90  -7.76880048E-03  -8.48174444E-04  -8.30914732E-03  -1.65241095E-03
               91  -8.51118844E-03  -8.89054791E-04  -9.07560904E-03  -1.61389378E-03
               92  -9.11587197E-03  -7.00219418E-04  -9.51557979E-03  -1.39454589E-03
               93  -9.66065750E-03  -4.50469262E-04  -1.02155926E-02  -1.14899920E-03
               94  -9.94769298E-03  -6.61254569E-04  -1.02533270E-02  -1.20048237E-03
               95  -1.00962445E-02  -4.50578053E-04  -1.04429629E-02  -4.70272207E-04
               96  -1.01135615E-02  -4.88914782E-04  -1.04468279E-02  -5.19999187E-04
               97   1.12211891E-03  -1.36029057E-03   1.13538257E-03   8.40307257E-05
               98   2.04779464E-03  -7.93566694E-04   2.05985690E-03  -5.74687656E-05
               99   1.97069300E-03  -4.21700242E-04   2.08709156E-03  -1.47509672E-05
              100   1.51203084E-03  -9.63824277E-07   1.65457814E-03  -1.94862150E-05
              101   1.17468601E-03   3.36877711E-04   1.27912406E-03  -1.21025823E-05
              102   8.91849864E-04   5.53182152E-04   9.18453617E-04   1.35787477E-05
              103   6.29206188E-04   6.89435983E-04   6.14799792E-04  -2.76334449E-05
              104   4.55325469E-04   7.09989108E-04   4.46872582E-04  -2.63729271E-05
              105   3.31169693E-04   6.92614936E-04   3.28254711E-04  -2.80904715E-05
              106   2.39717789E-04   6.47539389E-04   2.39939487E-04  -3.61270140E-05
              107   2.46565585E-04   6.23378262E-04   2.43950490E-04  -6.80829326E-05
              108   2.46317068E-04   5.91448566E-04   2.47331220E-04  -1.02394231E-04
              109   2.65191746E-04   5.43240167E-04   2.70984281E-04  -1.09848923E-04
              110   2.45844974E-04   4.61573014E-04   2.56205618E-04  -1.22983038E-04
              111   2.38555978E-04   3.72182694E-04   2.56821921E-04  -1.17602533E-04
              112   2.36265740E-04   2.65212817E-04   2.74132646E-04  -9.86650120E-05
              113   1.96344554E-04   1.44271457E-04   2.66329851E-04  -4.38166971E-05
              114   1.34251823E-04   4.21683617E-05   2.74108897E-04   2.10493254E-05
              115   4.38175157E-05  -5.50415753E-05   2.81113607E-04   1.02106860E-04
              116  -9.64592618E-05  -1.16855066E-04   2.90323776E-04   1.82914548E-04
              117  -3.02985252E-04  -1.36288596E-04   3.03560228E-04   2.58447224E-04
              118  -5.69135649E-04  -1.04986597E-04   3.16238700E-04   3.14428937E-04
              119  -8.54021288E-04  -6.85485138E-05   3.20198276E-04   2.77522340E-04
              120  -1.17248285E-03  -3.08412164E-05   3.40610917E-04   1.76033849E-04
              121  -1.61227747E-03   1.98870857E-05   4.07703163E-04   5.50218101E-05
              122  -2.07283348E-03   3.43915235E-05   5.22462884E-04   1.36198680E-04
              123  -2.57199397E-03   2.35465577E-05   6.60845311E-04   6.76857599E-05
              124  -3.18278582E-03   7.95745727E-05   8.25872179E-04   1.33878042E-04
              125  -3.84436199E-03   8.55186736E-05   1.03434757E-03   1.69601975E-04
              126  -4.65197535E-03   9.27274086E-05   1.29229436E-03   2.23448878E-04
              127  -5.52487094E-03   1.23300240E-04   1.58159912E-03   2.41247137E-04
              128  -6.43229764E-03   2.17737921E-04   1.91489421E-03   2.74601683E-04
              129  -7.32679712E-03   3.03168898E-04   2.29837652E-03   2.55134539E-04
              130   1.63833873E-04   5.99578954E-04   1.67315186E-04  -2.46128002E-05
              131   1.10869194E-04   4.99325222E-04   1.05692125E-04  -2.06453769E-05
              132   6.16625330E-05   4.02707898E-04   6.00948661E-05  -3.25383298E-05
              133   2.87789353E-05   3.25165573E-04   3.34034194E-05  -1.77216152E-05
              134   2.42326059E-05   2.38734836E-04   1.77873208E-05  -5.43291208E-07
              135   1.69600535E-05   1.72105152E-04   7.75688386E-06  -9.26105622E-06
              136   5.79763582E-06   1.21800302E-04   1.34677464E-06  -1.20652585E-05
              137   4.93331299E-07   8.08310870E-05  -1.11926454E-06  -6.19525918E-06
              138   7.65708705E-07   5.26714321E-05  -9.08725838E-07  -4.37281915E-06
              139  -6.02686896E-08   3.31198971E-05  -1.10409144E-06  -3.70216367E-06
              140  -8.57061821E-07   2.10069593E-05  -1.25329416E-06  -1.84635064E-06
              141  -4.04064622E-07   1.33693711E-05  -8.58586759E-07  -1.51863333E-06
              142  -5.12191150E-07   8.19162415E-06  -5.97135909E-07  -9.46387956E-07
              143  -3.60667514E-07   4.96057601E-06  -3.90850175E-07  -3.81141547E-07
              144  -3.85518319E-08   2.91280685E-06  -2.11417216E-07  -8.38318286E-08
              145   4.56113085E-08   1.67956182E-06  -1.20097269E-07  -1.78338439E-07
              146  -1.22720003E-08   1.01633555E-06  -7.54479075E-08  -1.86709755E-07
              147  -5.22589332E-08   5.26132737E-07  -3.29502754E-08  -8.21719013E-08
              148  -3.91235631E-08   2.93875019E-07  -1.00852642E-08  -8.05796763E-09
              149  -1.69985981E-08   1.71556493E-07  -1.22722774E-08  -1.90195699E-08
              150  -6.68955424E-09   1.07698909E-07  -9.37750233E-09  -3.93672384E-09
              151  -2.41141329E-10   6.55326957E-08  -3.95900068E-09  -7.01718905E-09
              152   4.30921432E-09   4.15848653E-08   3.65769015E-09  -4.34938752E-09
              153   9.87206228E-09   2.61097917E-08   7.49504103E-09  -4.40752546E-09
              154   1.02060147E-08   1.92597014E-08   6.08500583E-09  -7.15119697E-09
              155   1.01777502E-08   9.63195745E-09   3.99135303E-09  -6.13053119E-09
              156   7.31801553E-09  -8.98034258E-10   6.67151889E-10  -1.67282199E-09
              157  -1.74064985E-09  -6.45111431E-09  -2.46126053E-09   3.01060643E-09
              158  -1.00807078E-08  -7.48534479E-09  -4.49061677E-09   5.04540765E-09
              159  -1.68111605E-08  -5.39028333E-09  -5.30245092E-09   3.58930285E-09
              160  -2.55927119E-08  -7.81522347E-10  -3.95708888E-09   2.20789032E-09
              161  -3.92848172E-08   5.17902665E-11  -8.70752470E-10   5.00225505E-09
              162  -6.71184566E-08   3.40356632E-11   4.15721502E-09   7.99360311E-09
              163  -1.15828257E-07  -1.14277210E-09   1.48905670E-08   1.36506912E-08
              164  -1.90616078E-07  -4.24899271E-09   3.26291527E-08   2.24445387E-08
              165  -3.25259293E-07   4.85619234E-09   5.93742229E-08   8.40546832E-09
              166  -5.44194563E-07   2.34512090E-08   1.04325821E-07   9.62847579E-09
              167  -9.11501729E-07   4.15138643E-08   1.85033414E-07   5.19247010E-08
              168  -1.53082192E-06   7.86375409E-08   3.35667437E-07   8.71104504E-08
              169  -2.54588394E-06   1.18114073E-07   5.95903828E-07   1.34533735E-07
              170  -4.45380101E-06   2.24366403E-07   1.00691955E-06   1.86727945E-07
              171  -7.63144635E-06   3.20231948E-07   1.69628379E-06   6.03016076E-07
              172  -1.29049749E-05   6.41795964E-07   2.87187231E-06   9.59061595E-07
              173  -2.07800840E-05   7.30331465E-07   4.75001343E-06   2.31032345E-06
              174  -3.47817549E-05   1.32215905E-06   8.10997153E-06   1.35096570E-07
              175  -5.87533468E-05   1.06052039E-06   1.37157349E-05   8.39622498E-06
              176  -9.75798757E-05  -1.37876066E-06   2.28693061E-05   8.27886834E-06
              177  -1.55483664E-04  -3.91788376E-07   3.65063024E-05   1.11283744E-05
              178  -2.32934530E-04   6.66723281E-08   5.68334399E-05   2.16978169E-05
              179  -3.43626627E-04  -2.68227518E-06   8.67102935E-05   2.74985250E-05
              180  -4.93255211E-04  -3.46313118E-06   1.27213716E-04   3.10312280E-05
              181  -6.97319396E-04  -2.39091105E-06   1.75231078E-04   4.35235561E-05
              182  -9.63155879E-04   1.30752223E-05   2.36803826E-04   4.93327898E-05
              183  -1.07954219E-02  -7.22714234E-04  -1.06370077E-02  -4.43394558E-04
              184  -1.06612584E-02  -7.10584631E-04  -1.06905121E-02  -4.96907975E-04
              185  -1.04731377E-02  -7.14127731E-04  -1.06727164E-02  -8.51036282E-04
              186  -1.03421565E-02  -5.69962140E-04  -1.04515441E-02  -9.15115932E-04
              187  -9.94663499E-03  -7.62759475E-04  -1.00867916E-02  -1.17375329E-03
              188  -9.64230113E-03  -5.76350605E-04  -9.72559489E-03  -1.28560432E-03
              189  -9.16300155E-03  -7.20776850E-04  -9.07388888E-03  -1.38765352E-03
              190  -8.66943132E-03  -6.78700977E-04  -8.50922428E-03  -1.54279161E-03
              191  -8.17208365E-03  -6.00953936E-04  -7.73707125E-03  -1.57280394E-03
              192  -7.69492146E-03  -7.28539831E-04  -6.91805361E-03  -1.67475792E-03
              193  -7.21746590E-03  -6.16772275E-04  -6.28933823E-03  -1.83106679E-03
              194  -6.91293553E-03  -8.57029227E-04  -5.20310225E-03  -1.99813349E-03
              195  -6.66483957E-03  -1.32292556E-03  -4.68137302E-03  -2.47076945E-03
              196  -6.56637922E-03  -1.66997931E-03  -5.06419037E-03  -2.36322568E-03
              197  -5.92774153E-03  -1.81498937E-03  -4.89063421E-03  -1.39067881E-03
              198  -6.22312445E-03  -2.78684922E-04  -3.36526823E-03  -1.53461134E-03
              199  -5.14064124E-03  -5.23484196E-05  -1.60205935E-03  -2.63567036E-03
              200  -5.85471885E-03   8.22872447E-04  -4.77417285E-04  -3.03069036E-03
              201  -6.72485214E-03   6.59594196E-04  -1.73119304E-04  -2.70076864E-03
              202  -7.54300319E-03   5.50998433E-04  -2.57270847E-04  -2.21065106E-03
              203  -8.28929991E-03   5.39796310E-04  -3.32485739E-04  -1.68215157E-03
              204  -8.82767141E-03   4.87647252E-04  -2.50612851E-04  -1.19424274E-03
              205  -9.20774601E-03   4.29011649E-04   1.08714194E-05  -8.03670089E-04
              206  -9.33657866E-03   3.33607080E-04   3.59758676E-04  -5.13804785E-04
              207  -9.34190676E-03   2.69355543E-04   8.42770969E-04  -2.95948179E-04
              208  -9.21164453E-03   2.34705600E-04   1.37449545E-03  -1.35934752E-04
              209  -8.88036937E-03   2.10452272E-04   1.85683731E-03   1.58796865E-05
              210  -8.54200870E-03   1.79821931E-04   2.40017939E-03   1.75632566E-04
              211  -8.19765497E-03   1.11768575E-04   2.81482795E-03   3.07744456E-04
              212  -7.73434993E-03   1.01332320E-04   2.94900872E-03   3.58074554E-04
              213  -1.13401879E-02  -1.36544416E-03  -1.13399439E-02  -1.53739587E-04
              214  -1.12653915E-02  -1.30338210E-03  -1.12893237E-02  -4.31480294E-04
              215  -1.11503256E-02  -1.21375197E-03  -1.11793000E-02  -4.98225447E-04
              216  -1.10329818E-02  -1.15156674E-03  -1.10810446E-02  -7.39166455E-04
              217  -1.09143918E-02  -1.06203102E-03  -1.09690204E-02  -8.43034009E-04
              218  -1.07949190E-02  -1.00453221E-03  -1.07200891E-02  -9.81576974E-04
              219  -1.05842538E-02  -1.09306048E-03  -1.04019595E-02  -1.11804437E-03
              220  -1.03598274E-02  -1.05677044E-03  -1.00020058E-02  -1.19234796E-03
              221  -1.01904348E-02  -1.08117110E-03  -9.49926488E-03  -1.33853208E-03
              222  -9.92118753E-03  -1.18088629E-03  -9.12598986E-03  -1.49990525E-03
              223  -9.79443733E-03  -1.29968114E-03  -8.60281661E-03  -1.65953708E-03
              224  -9.62654874E-03  -1.72015640E-03  -8.20922293E-03  -1.93826330E-03
              225  -9.33916867E-03  -2.38488871E-03  -8.12618900E-03  -2.11563986E-03
              226  -8.93136021E-03  -2.72543449E-03  -8.00909381E-03  -2.09049974E-03
              227  -8.80364981E-03  -2.05959519E-03  -7.31291296E-03  -2.06155400E-03
              228  -8.32654908E-03  -1.67251204E-03  -6.37428928E-03  -1.96756911E-03
              229  -7.82718509E-03  -6.48487709E-04  -5.54832816E-03  -2.23889994E-03
              230  -7.08478317E-03   5.58207161E-04  -4.19354951E-03  -2.82821618E-03
              231  -6.68091606E-03   1.17513374E-03  -2.83287093E-03  -3.24338418E-03
              232  -6.51382329E-03   1.28085969E-03  -1.89998932E-03  -3.20253102E-03
              233  -6.59081805E-03   1.31827965E-03  -1.04962464E-03  -2.97377980E-03
              234  -6.78778812E-03   1.21287082E-03  -1.54208043E-04  -2.54042074E-03
              235  -6.98693236E-03   1.00422336E-03   7.39167444E-04  -2.01119622E-03
              236  -7.10088061E-03   7.69282866E-04   1.57391746E-03  -1.49366411E-03
              237  -7.11826840E-03   6.02026936E-04   2.32042745E-03  -1.02758931E-03
              238  -7.04508182E-03   5.32739214E-04   2.99647101E-03  -6.04981440E-04
              239  -6.93044486E-03   5.28063625E-04   3.61439562E-03  -2.09410180E-04
              240  -6.62692217E-03   4.54846129E-04   3.77196795E-03   8.92806711E-05
              241  -6.19013514E-03   3.26472538E-04   3.41534242E-03   2.82447378E-04
              242  -5.88761270E-03   2.68126896E-04   3.06356698E-03   4.02267557E-04
              243  -1.18072890E-02  -1.80955662E-03  -1.17912441E-02  -2.64073984E-04
              244  -1.17430920E-02  -1.74587872E-03  -1.17095681E-02  -2.51138437E-04
              245  -1.16767557E-02  -1.68169232E-03  -1.16072753E-02  -4.70121304E-04
              246  -1.15920613E-02  -1.59560575E-03  -1.15090776E-02  -5.63847017E-04
              247  -1.14861755E-02  -1.54469640E-03  -1.13516329E-02  -7.23692123E-04
              248  -1.14023602E-02  -1.53186766E-03  -1.11940075E-02  -8.65552924E-04
              249  -1.13170566E-02  -1.48133852E-03  -1.09863710E-02  -9.83478967E-04
              250  -1.12212515E-02  -1.53840275E-03  -1.06934505E-02  -1.14674342E-03
              251  -1.11052329E-02  -1.60390092E-03  -1.04382113E-02  -1.29590393E-03
              252  -1.09729031E-02  -1.76189665E-03  -1.01322532E-02  -1.48231606E-03
              253  -1.08370706E-02  -2.01446214E-03  -9.83702019E-03  -1.68059510E-03
              254  -1.06172310E-02  -2.42267782E-03  -9.59802046E-03  -1.85147987E-03
              255  -1.03235925E-02  -2.84458557E-03  -9.39292740E-03  -1.94351422E-03
              256  -1.00056436E-02  -3.00808204E-03  -9.10235010E-03  -1.90332462E-03
              257  -9.72860865E-03  -2.79278262E-03  -8.59575905E-03  -1.82069663E-03
              258  -9.67159588E-03  -1.95470895E-03  -7.82694947E-03  -1.91045669E-03
              259  -9.41574946E-03  -1.45463459E-03  -6.97009033E-03  -1.95760722E-03
              260  -8.94072838E-03  -7.51610671E-04  -6.14964683E-03  -2.08938005E-03
              261  -8.24808143E-03   4.85300436E-04  -4.99984343E-03  -2.45196535E-03
              262  -7.60265719E-03   1.37840514E-03  -3.51777161E-03  -2.82286434E-03
              263  -6.95550255E-03   1.82041747E-03  -2.09241430E-03  -2.86414521E-03
              264  -6.43847976E-03   1.98602513E-03  -6.63869316E-04  -2.72064493E-03
              265  -6.05860585E-03   1.91218138E-03   7.25879567E-04  -2.42810277E-03
              266  -5.76087600E-03   1.71729783E-03   1.95483142E-03  -2.00224528E-03
              267  -5.49517386E-03   1.52811222E-03   2.94852559E-03  -1.50509842E-03
              268  -5.23159886E-03   1.44813268E-03   3.71560012E-03  -9.77053656E-04
              269  -5.00545464E-03   1.38746260E-03   4.08677477E-03  -5.09630074E-04
              270  -4.74189734E-03   1.11546391E-03   3.83692165E-03  -1.47372979E-04
              271  -4.58461512E-03   7.98123830E-04   3.40839243E-03   1.20434401E-04
              272  -4.42726724E-03   5.52315789E-04   3.03947041E-03   3.13547120E-04
              273  -1.18836947E-02  -2.19495408E-03  -1.18635725E-02  -7.70538682E-05
              274  -1.18579790E-02  -2.16359808E-03  -1.17932679E-02  -2.90425232E-04
              275  -1.18101966E-02  -2.07776926E-03  -1.17207635E-02  -3.44367203E-04
              276  -1.17290206E-02  -2.04834272E-03  -1.15592927E-02  -5.01676346E-04
              277  -1.16737578E-02  -1.94563786E-03  -1.14276987E-02  -6.33231481E-04
              278  -1.15688797E-02  -1.91717746E-03  -1.12161608E-02  -7.56593596E-04
              279  -1.14683425E-02  -1.95525284E-03  -1.09755257E-02  -9.11764160E-04
              280  -1.13623803E-02  -1.99865107E-03  -1.07441032E-02  -1.03339308E-03
              281  -1.12408968E-02  -2.12824042E-03  -1.04912687E-02  -1.18920603E-03
              282  -1.11241024E-02  -2.28575012E-03  -1.02430619E-02  -1.32931187E-03
              283  -1.09645287E-02  -2.52742344E-03  -9.99480765E-03  -1.45955163E-03
              284  -1.07659176E-02  -2.80623254E-03  -9.76771489E-03  -1.55386818E-03
              285  -1.05318520E-02  -2.97543593E-03  -9.51587968E-03  -1.56189071E-03
              286  -1.03100669E-02  -2.93390360E-03  -9.14287660E-03  -1.51742320E-03
              287  -1.00957081E-02  -2.66842428E-03  -8.61747749E-03  -1.46124652E-03
              288  -9.64572933E-03  -2.58846395E-03  -8.01352970E-03  -1.37962517E-03
              289  -9.30486713E-03  -2.05473276E-03  -7.20645348E-03  -1.36335869E-03
              290  -8.96446127E-03  -1.42114284E-03  -6.29204325E-03  -1.37006736E-03
              291  -8.59056134E-03  -6.34434924E-04  -5.40062226E-03  -1.47454801E-03
              292  -7.92432297E-03   4.58728551E-04  -4.26569348E-03  -1.64918415E-03
              293  -7.22267292E-03   1.36974652E-03  -2.80071911E-03  -1.87266455E-03
              294  -6.51858049E-03   2.00359966E-03  -1.28795102E-03  -1.96570507E-03
              295  -5.85716031E-03   2.35164585E-03   2.20428876E-04  -1.91885175E-03
              296  -5.26589295E-03   2.45347968E-03   1.62558665E-03  -1.72549672E-03
              297  -4.75625088E-03   2.44222744E-03   2.81238789E-03  -1.41230575E-03
              298  -4.33181413E-03   2.45154020E-03   3.73304402E-03  -1.02515216E-03
              299  -4.03518602E-03   2.28116638E-03   4.06843703E-03  -6.38304045E-04
              300  -3.71854054E-03   1.76864362E-03   3.73357069E-03  -3.15288460E-04
              301  -3.51600861E-03   1.28786988E-03   3.32235009E-03  -5.42814851E-05
              302  -3.35791474E-03   9.30275419E-04   2.97073438E-03   1.52923327E-04
              303  -1.14319744E-02  -2.50472268E-03  -1.14137484E-02  -2.06884244E-04
              304  -1.13995969E-02  -2.47988245E-03  -1.13593396E-02  -1.81753232E-04
              305  -1.13602448E-02  -2.46069650E-03  -1.12428516E-02  -3.25369736E-04
              306  -1.13114966E-02  -2.40478478E-03  -1.11362962E-02  -4.17347474E-04
              307  -1.12371854E-02  -2.37806188E-03  -1.09599009E-02  -5.29379235E-04
              308  -1.11554284E-02  -2.37896410E-03  -1.07712168E-02  -6.67416374E-04
              309  -1.10540204E-02  -2.40014959E-03  -1.05525199E-02  -7.75295775E-04
              310  -1.09301852E-02  -2.48828623E-03  -1.03100492E-02  -9.15614481E-04
              311  -1.08004101E-02  -2.58553401E-03  -1.00578535E-02  -1.02675229E-03
              312  -1.06366230E-02  -2.74261297E-03  -9.78984591E-03  -1.13382377E-03
              313  -1.04493201E-02  -2.91794632E-03  -9.52694565E-03  -1.21096778E-03
              314  -1.02270162E-02  -3.05897626E-03  -9.24506877E-03  -1.23035186E-03
              315  -9.97281075E-03  -3.14740511E-03  -8.91523063E-03  -1.20822480E-03
              316  -9.69100930E-03  -3.10661620E-03  -8.50082748E-03  -1.13691576E-03
              317  -9.37990658E-03  -2.91817635E-03  -7.97010306E-03  -1.04334846E-03
              318  -9.16907378E-03  -2.41939211E-03  -7.29431072E-03  -9.62466700E-04
              319  -8.81068781E-03  -2.01566587E-03  -6.58467878E-03  -8.75547936E-04
              320  -8.39063618E-03  -1.56473066E-03  -5.77024091E-03  -8.12897517E-04
              321  -7.95201864E-03  -9.41883947E-04  -4.89696115E-03  -7.59694958E-04
              322  -7.53611233E-03  -1.02930404E-04  -3.96594964E-03  -8.07552482E-04
              323  -6.94879238E-03   8.77769431E-04  -2.84241163E-03  -9.02008847E-04
              324  -6.30613603E-03   1.70097442E-03  -1.51023362E-03  -1.02411432E-03
              325  -5.64295053E-03   2.32380466E-03  -1.40334640E-04  -1.08270987E-03
              326  -5.00090420E-03   2.73829908E-03   1.19815662E-03  -1.05422945E-03
              327  -4.41153906E-03   2.97696562E-03   2.42502126E-03  -9.36426339E-04
              328  -3.88719537E-03   3.12904967E-03   3.47195240E-03  -7.34255824E-04
              329  -3.49681266E-03   2.92991893E-03   3.88369150E-03  -4.92512539E-04
              330  -3.08880024E-03   2.29536765E-03   3.55836563E-03  -2.81157758E-04
              331  -2.82308366E-03   1.73141423E-03   3.17921536E-03  -8.46052862E-05
              332  -2.61670677E-03   1.29685504E-03   2.85648741E-03   8.75034748E-05
              333  -1.06381681E-02  -2.81027192E-03  -1.06105749E-02  -5.80897395E-05
              334  -1.06109064E-02  -2.80101947E-03  -1.05499420E-02  -1.93290733E-04
              335  -1.05736665E-02  -2.77483021E-03  -1.04831252E-02  -2.44828028E-04
              336  -1.05208354E-02  -2.76596704E-03  -1.03495354E-02  -3.40321683E-04
              337  -1.04554715E-02  -2.75987666E-03  -1.02120098E-02  -4.43072437E-04
              338  -1.03699304E-02  -2.76662759E-03  -1.00262910E-02  -5.28105244E-04
              339  -1.02593303E-02  -2.81634764E-03  -9.82099585E-03  -6.43178704E-04
              340  -1.01343710E-02  -2.86838994E-03  -9.59080644E-03  -7.24786369E-04
              341  -9.97610297E-03  -2.96277367E-03  -9.33433138E-03  -8.09161982E-04
              342  -9.79471207E-03  -3.05826054E-03  -9.06770863E-03  -8.64004833E-04
              343  -9.58053861E-03  -3.13872891E-03  -8.77348520E-03  -8.79625673E-04
              344  -9.33758169E-03  -3.18803452E-03  -8.44872743E-03  -8.61486362E-04
              345  -9.08031408E-03  -3.13818292E-03  -8.06741137E-03  -7.92201608E-04
              346  -8.81180819E-03  -2.99036875E-03  -7.61412317E-03  -6.95034862E-04
              347  -8.53251852E-03  -2.74259760E-03  -7.08154775E-03  -5.84289955E-04
              348  -8.17692280E-03  -2.47360743E-03  -6.48843776E-03  -4.71834268E-04
              349  -7.85981584E-03  -2.02193880E-03  -5.77742700E-03  -3.73061281E-04
              350  -7.52244750E-03  -1.46865239E-03  -5.01987152E-03  -2.79154250E-04
              351  -7.13595795E-03  -9.00798244E-04  -4.20931587E-03  -2.06841360E-04
              352  -6.71444088E-03  -2.15082793E-04  -3.35153239E-03  -1.54031732E-04
              353  -6.28432538E-03   5.99199615E-04  -2.41095177E-03  -1.70276413E-04
              354  -5.76594099E-03   1.44461193E-03  -1.33578293E-03  -2.24687028E-04
              355  -5.20934630E-03   2.16869824E-03  -1.51932734E-04  -2.95514183E-04
              356  -4.63235332E-03   2.74439808E-03   1.04218686E-03  -3.31018033E-04
              357  -4.06877650E-03   3.16791609E-03   2.19224254E-03  -3.15486337E-04
              358  -3.53141781E-03   3.45242559E-03   3.26188211E-03  -2.42833979E-04
              359  -3.11048795E-03   3.27968318E-03   3.67564033E-03  -1.41111319E-04
              360  -2.66079768E-03   2.61597312E-03   3.32682929E-03  -7.36301226E-05
              361  -2.36793258E-03   2.04176106E-03   2.98336777E-03   1.51512058E-05
              362  -2.15148949E-03   1.58968079E-03   2.68757599E-03   1.04001047E-04
              363  -9.68086161E-03  -3.05967522E-03  -9.66820493E-03  -1.29861306E-04
              364  -9.65353847E-03  -3.05547565E-03  -9.61699523E-03  -1.21435231E-04
              365  -9.61307250E-03  -3.05552175E-03  -9.51978099E-03  -1.99987786E-04
              366  -9.55588091E-03  -3.05142999E-03  -9.42015741E-03  -2.63029564E-04
              367  -9.48219933E-03  -3.05506820E-03  -9.26633179E-03  -3.22670676E-04
              368  -9.38468147E-03  -3.07908352E-03  -9.10183601E-03  -4.02795791E-04
              369  -9.27099399E-03  -3.09978263E-03  -8.90283938E-03  -4.52617707E-04
              370  -9.12646577E-03  -3.14741791E-03  -8.67912546E-03  -5.11351216E-04
              371  -8.96072853E-03  -3.18594719E-03  -8.43680557E-03  -5.40106266E-04
              372  -8.76625068E-03  -3.21602775E-03  -8.16086866E-03  -5.44022070E-04
              373  -8.54599942E-03  -3.22157284E-03  -7.85771850E-03  -5.21062408E-04
              374  -8.30729585E-03  -3.16629605E-03  -7.50725064E-03  -4.58652445E-04
              375  -8.04723613E-03  -3.05728312E-03  -7.10571045E-03  -3.74003721E-04
              376  -7.77235162E-03  -2.86818249E-03  -6.64250227E-03  -2.67048599E-04
              377  -7.48504326E-03  -2.59200484E-03  -6.11593854E-03  -1.46441525E-04
              378  -7.20650330E-03  -2.20907573E-03  -5.51844016E-03  -2.25122003E-05
              379  -6.88650645E-03  -1.79044122E-03  -4.88355383E-03   9.73731367E-05
              380  -6.54354924E-03  -1.32202718E-03  -4.18526493E-03   2.00708237E-04
              381  -6.20109402E-03  -7.49202620E-04  -3.44171608E-03   2.92650540E-04
              382  -5.83839929E-03  -1.24989485E-04  -2.64851586E-03   3.59628524E-04
              383  -5.45077259E-03   5.76822029E-04  -1.79896201E-03   3.96512740E-04
              384  -5.03834849E-03   1.32458797E-03  -8.72126082E-04   3.88226501E-04
              385  -4.57503740E-03   2.04506749E-03   1.36600749E-04   3.54470219E-04
              386  -4.08413960E-03   2.67014373E-03   1.19768141E-03   3.12037824E-04
              387  -3.56909027E-03   3.19705904E-03   2.24559195E-03   2.94893805E-04
              388  -3.12310550E-03   3.56162153E-03   3.17836949E-03   2.89696793E-04
              389  -2.65354663E-03   3.30346636E-03   3.40310484E-03   2.43357325E-04
              390  -2.27703736E-03   2.69284332E-03   3.05719464E-03   1.88271952E-04
              391  -1.99811067E-03   2.16745120E-03   2.75318976E-03   1.71172578E-04
              392  -1.78539229E-03   1.72544806E-03   2.48541450E-03   1.81526048E-04
              393  -8.60734377E-03  -3.25464038E-03  -8.58438201E-03  -3.71281858E-05
              394  -8.57459288E-03  -3.25499941E-03  -8.53091385E-03  -9.97919196E-05
              395  -8.52846541E-03  -3.25220660E-03  -8.46253894E-03  -1.25617124E-04
              396  -8.46850500E-03  -3.25329020E-03  -8.34345166E-03  -1.63458419E-04
              397  -8.38550925E-03  -3.26069142E-03  -8.21839925E-03  -2.07237681E-04
              398  -8.28722399E-03  -3.26169445E-03  -8.05123523E-03  -2.27761935E-04
              399  -8.16105586E-03  -3.27522028E-03  -7.86432717E-03  -2.57853710E-04
              400  -8.01576488E-03  -3.27356183E-03  -7.65166944E-03  -2.59347376E-04
              401  -7.84445647E-03  -3.26492405E-03  -7.40519026E-03  -2.47924967E-04
              402  -7.65019981E-03  -3.23296594E-03  -7.13281566E-03  -2.14075539E-04
              403  -7.43806595E-03  -3.15899472E-03  -6.81684352E-03  -1.51319473E-04
              404  -7.20614381E-03  -3.04506137E-03  -6.46104664E-03  -7.03935439E-05
              405  -6.96268864E-03  -2.86672637E-03  -6.05550781E-03   3.36217308E-05
              406  -6.70805760E-03  -2.62713060E-03  -5.59993740E-03   1.50805834E-04
              407  -6.44052867E-03  -2.32843263E-03  -5.09335753E-03   2.72984733E-04
              408  -6.15478074E-03  -1.97506719E-03  -4.54059709E-03   3.95692041E-04
              409  -5.86850569E-03  -1.54708745E-03  -3.93021340E-03   5.12839586E-04
              410  -5.57288108E-03  -1.05430372E-03  -3.28144082E-03   6.23606262E-04
              411  -5.25255315E-03  -5.30148391E-04  -2.59097898E-03   7.17667106E-04
              412  -4.92188195E-03   5.68629293E-05  -1.85942568E-03   7.95010012E-04
              413  -4.57554962E-03   6.84183557E-04  -1.07933755E-03   8.47067276E-04
              414  -4.20823414E-03   1.35335757E-03  -2.46715092E-04   8.70576943E-04
              415  -3.81773943E-03   2.02294462E-03   6.42782892E-04   8.63569730E-04
              416  -3.39269801E-03   2.64765183E-03   1.56796095E-03   8.43861315E-04
              417  -2.95531680E-03   3.19466135E-03   2.52168369E-03   8.12784303E-04
              418  -2.59397808E-03   3.43948370E-03   3.14940792E-03   7.40563381E-04
              419  -2.15109345E-03   3.07591935E-03   3.07317311E-03   5.70016855E-04
              420  -1.86293386E-03   2.56336783E-03   2.77247233E-03   4.19463642E-04
              421  -1.62785733E-03   2.11947458E-03   2.50940234E-03   3.28944472E-04
              422  -1.43612316E-03   1.73218409E-03   2.27738498E-03   2.79454194E-04
              423  -7.43816001E-03  -3.36352852E-03  -7.42750848E-03  -5.35768813E-05
              424  -7.40832137E-03  -3.36131337E-03  -7.38043617E-03  -3.25724832E-05
              425  -7.36334827E-03  -3.35814361E-03  -7.29815429E-03  -4.90787570E-05
              426  -7.29668699E-03  -3.35345627E-03  -7.20759947E-03  -5.82030152E-05
              427  -7.21586309E-03  -3.34127108E-03  -7.07248179E-03  -5.43650276E-05
              428  -7.10964017E-03  -3.33132991E-03  -6.92264270E-03  -5.63066205E-05
              429  -6.98681176E-03  -3.30390548E-03  -6.74023153E-03  -3.33412499E-05
              430  -6.84065558E-03  -3.26804793E-03  -6.52707694E-03  -4.93520838E-06
              431  -6.67460822E-03  -3.20847705E-03  -6.28737453E-03   4.32456582E-05
              432  -6.49148365E-03  -3.11781093E-03  -6.00715308E-03   1.10733148E-04
              433  -6.28916174E-03  -2.99525028E-03  -5.69382589E-03   1.92002859E-04
              434  -6.07520761E-03  -2.82354536E-03  -5.33672841E-03   2.92517943E-04
              435  -5.84788015E-03  -2.60778307E-03  -4.93867416E-03   4.03304322E-04
              436  -5.60863409E-03  -2.34183460E-03  -4.49777627E-03   5.21760550E-04
              437  -5.36148716E-03  -2.02106498E-03  -4.01369017E-03   6.45200140E-04
              438  -5.10666333E-03  -1.64768065E-03  -3.48602934E-03   7.67132151E-04
              439  -4.83850949E-03  -1.23015849E-03  -2.92223296E-03   8.84077454E-04
              440  -4.55714809E-03  -7.72411353E-04  -2.31779134E-03   9.90084140E-04
              441  -4.27014008E-03  -2.60488072E-04  -1.67671486E-03   1.08595251E-03
              442  -3.96982953E-03   2.86018214E-04  -9.97765106E-04   1.16488547E-03
              443  -3.65621410E-03   8.74747057E-04  -2.81017652E-04   1.22534984E-03
              444  -3.32637993E-03   1.47717248E-03   4.79296054E-04   1.26201881E-03
              445  -2.97304988E-03   2.08932534E-03   1.27628085E-03   1.27805606E-03
              446  -2.60804361E-03   2.69322307E-03   2.10408354E-03   1.27245020E-03
              447  -2.29547895E-03   3.11431219E-03   2.82398378E-03   1.21422019E-03
              448  -1.97116984E-03   3.06390482E-03   2.99540907E-03   1.03453081E-03
              449  -1.68082840E-03   2.71310168E-03   2.73282803E-03   7.76519650E-04
              450  -1.46206771E-03   2.32931343E-03   2.48547643E-03   5.82750246E-04
              451  -1.27568119E-03   1.97541458E-03   2.26413785E-03   4.52326174E-04
              452  -1.11895718E-03   1.65706151E-03   2.06705695E-03   3.67330009E-04
              453  -6.22431422E-03  -3.37210391E-03  -6.20524306E-03   1.14473023E-05
              454  -6.19128020E-03  -3.36561748E-03  -6.16063923E-03   1.86534726E-05
              455  -6.14206446E-03  -3.35351564E-03  -6.09867135E-03   4.17377814E-05
              456  -6.07913919E-03  -3.33286566E-03  -5.99578535E-03   6.66373526E-05
              457  -5.99333178E-03  -3.30723240E-03  -5.87958237E-03   9.16462886E-05
              458  -5.89305256E-03  -3.26397130E-03  -5.72628807E-03   1.35396447E-04
              459  -5.77127468E-03  -3.21044284E-03  -5.54741872E-03   1.80965377E-04
              460  -5.63212158E-03  -3.13385995E-03  -5.34053007E-03   2.43548944E-04
              461  -5.47693856E-03  -3.03217396E-03  -5.09632286E-03   3.18026025E-04
              462  -5.30461082E-03  -2.90197576E-03  -4.82231472E-03   4.03971178E-04
              463  -5.12073794E-03  -2.73338961E-03  -4.50930465E-03   5.04645868E-04
              464  -4.92185168E-03  -2.53129983E-03  -4.16288991E-03   6.12341450E-04
              465  -4.71265381E-03  -2.28594220E-03  -3.77813773E-03   7.28444138E-04
              466  -4.49559372E-03  -1.99685735E-03  -3.35561763E-03   8.49686679E-04
              467  -4.26774705E-03  -1.66852667E-03  -2.89700972E-03   9.70219553E-04
              468  -4.02985653E-03  -1.29973958E-03  -2.40305299E-03   1.08829699E-03
              469  -3.78369633E-03  -8.89871910E-04  -1.87276385E-03   1.20066688E-03
              470  -3.53130046E-03  -4.36238479E-04  -1.30982639E-03   1.30635989E-03
              471  -3.26688029E-03   4.94178275E-05  -7.13553396E-04   1.39985513E-03
              472  -2.99027725E-03   5.67714684E-04  -8.76879494E-05   1.48084795E-03
              473  -2.70201080E-03   1.09895691E-03   5.71930548E-04   1.54358684E-03
              474  -2.39876495E-03   1.66744855E-03   1.26385200E-03   1.59102178E-03
              475  -2.09933333E-03   2.25072843E-03   1.98916183E-03   1.61424023E-03
              476  -1.83522282E-03   2.66301655E-03   2.62937788E-03   1.58787589E-03
              477  -1.60111999E-03   2.78165331E-03   2.82984390E-03   1.39914476E-03
              478  -1.37069204E-03   2.59142648E-03   2.63775489E-03   1.09977007E-03
              479  -1.22128357E-03   2.31340807E-03   2.41109892E-03   8.50091863E-04
              480  -1.08171161E-03   2.04492034E-03   2.20827642E-03   6.63356448E-04
              481  -9.53050563E-04   1.78221054E-03   2.02473043E-03   5.20909205E-04
              482  -8.41262517E-04   1.53530983E-03   1.85880263E-03   4.17755800E-04
              483  -4.96580265E-03  -3.26606887E-03  -4.95572016E-03   2.74594877E-05
              484  -4.93634865E-03  -3.25357262E-03  -4.91489843E-03   8.59338688E-05
              485  -4.89192316E-03  -3.23038129E-03  -4.84374957E-03   1.32464440E-04
              486  -4.82705003E-03  -3.19706369E-03  -4.75728791E-03   1.83731856E-04
              487  -4.74849716E-03  -3.14664817E-03  -4.63338150E-03   2.45617062E-04
              488  -4.64954274E-03  -3.08380742E-03  -4.48827026E-03   3.08365212E-04
              489  -4.53591906E-03  -2.99849198E-03  -4.31246404E-03   3.84965184E-04
              490  -4.40747105E-03  -2.89159594E-03  -4.10373043E-03   4.68444807E-04
              491  -4.26292885E-03  -2.75923149E-03  -3.86766181E-03   5.60920162E-04
              492  -4.10614489E-03  -2.59578601E-03  -3.59638687E-03   6.63486018E-04
              493  -3.93535290E-03  -2.40285229E-03  -3.29540391E-03   7.71925028E-04
              494  -3.75669426E-03  -2.17240257E-03  -2.95910169E-03   8.88673356E-04
              495  -3.56714707E-03  -1.90992269E-03  -2.59171356E-03   1.00786577E-03
              496  -3.36540723E-03  -1.61542930E-03  -2.19345489E-03   1.12661032E-03
              497  -3.15667456E-03  -1.28271803E-03  -1.76212704E-03   1.24595652E-03
              498  -2.94175372E-03  -9.12959047E-04  -1.29717425E-03   1.36207487E-03
              499  -2.71938974E-03  -5.07187448E-04  -8.01366346E-04   1.47289294E-03
              500  -2.48345709E-03  -7.63433636E-05  -2.78387452E-04   1.57446240E-03
              501  -2.23747944E-03   3.78013676E-04   2.69712385E-04   1.66582072E-03
              502  -1.98330637E-03   8.66961083E-04   8.52856552E-04   1.74564216E-03
              503  -1.73802767E-03   1.41072867E-03   1.45573262E-03   1.81672652E-03
              504  -1.46875216E-03   1.87751208E-03   2.08482961E-03   1.86016201E-03
              505  -1.27082388E-03   2.21172557E-03   2.59186537E-03   1.84157945E-03
              506  -1.12474419E-03   2.37685046E-03   2.67777871E-03   1.62440049E-03
              507  -1.00256514E-03   2.31400458E-03   2.49489467E-03   1.31413108E-03
              508  -9.21844505E-04   2.14918284E-03   2.29779305E-03   1.05357717E-03
              509  -8.33947386E-04   1.96494767E-03   2.11700518E-03   8.41884874E-04
              510  -7.45584082E-04   1.76886609E-03   1.95074803E-03   6.69572386E-04
              511  -6.62073377E-04   1.57377333E-03   1.79922488E-03   5.34806109E-04
              512  -5.84114168E-04   1.38167164E-03   1.66090881E-03   4.30056389E-04
              513  -3.69179389E-03  -3.04832798E-03  -3.68166715E-03   6.93860857E-05
              514  -3.66323465E-03  -3.02814855E-03  -3.63826961E-03   1.38737552E-04
              515  -3.61925829E-03  -2.99469428E-03  -3.57585377E-03   2.15283668E-04
              516  -3.56185739E-03  -2.94460915E-03  -3.48009774E-03   2.94821046E-04
              517  -3.48563259E-03  -2.88022845E-03  -3.36663099E-03   3.76484444E-04
              518  -3.39654810E-03  -2.79490044E-03  -3.22216703E-03   4.67299396E-04
              519  -3.29246046E-03  -2.69009988E-03  -3.04917432E-03   5.60665445E-04
              520  -3.17328027E-03  -2.56066443E-03  -2.84861284E-03   6.60873833E-04
              521  -3.04319616E-03  -2.40310328E-03  -2.61526695E-03   7.68914295E-04
              522  -2.90032313E-03  -2.21971329E-03  -2.35636695E-03   8.81811138E-04
              523  -2.74699833E-03  -2.00778688E-03  -2.06750608E-03   9.98846255E-04
              524  -2.58095190E-03  -1.76906795E-03  -1.75059121E-03   1.11654191E-03
              525  -2.40820320E-03  -1.49576238E-03  -1.40231114E-03   1.23777869E-03
              526  -2.23029335E-03  -1.18996028E-03  -1.02434377E-03   1.36051292E-03
              527  -2.04221625E-03  -8.58985470E-04  -6.18607970E-04   1.47794036E-03
              528  -1.84175372E-03  -5.02338633E-04  -1.86579113E-04   1.58963050E-03
              529  -1.63078331E-03  -1.20474564E-04   2.70248565E-04   1.69545528E-03
              530  -1.41706259E-03   3.02850240E-04   7.58954789E-04   1.79716933E-03
              531  -1.21380854E-03   7.76478497E-04   1.27295544E-03   1.89580140E-03
              532  -9.80230630E-04   1.20277668E-03   1.80269906E-03   1.96815282E-03
              533  -7.71702966E-04   1.53621053E-03   2.29096785E-03   2.01186072E-03
              534  -6.73000701E-04   1.81979523E-03   2.56113708E-03   1.92728546E-03
              535  -6.29055314E-04   1.99198537E-03   2.49698665E-03   1.65526243E-03
              536  -6.15799974E-04   1.97922089E-03   2.32342817E-03   1.40194141E-03
              537  -5.91471791E-04   1.89321709E-03   2.15355214E-03   1.15884654E-03
              538  -5.57640102E-04   1.78777077E-03   1.99635909E-03   9.53608018E-04
              539  -5.13769919E-04   1.66168646E-03   1.85051723E-03   7.76711502E-04
              540  -4.64899291E-04   1.52411894E-03   1.71601493E-03   6.30168710E-04
              541  -4.14120790E-04   1.37930294E-03   1.59191457E-03   5.10382408E-04
              542  -3.64604057E-04   1.23386784E-03   1.47797749E-03   4.16706549E-04
              543  -2.40615057E-03  -2.72445218E-03  -2.40231398E-03   9.27585206E-05
              544  -2.37979041E-03  -2.69986829E-03  -2.36315490E-03   1.88202583E-04
              545  -2.34039896E-03  -2.65618437E-03  -2.29290500E-03   2.83971312E-04
              546  -2.28516082E-03  -2.59643467E-03  -2.20599491E-03   3.84976622E-04
              547  -2.21958174E-03  -2.51774769E-03  -2.08961964E-03   4.89326543E-04
              548  -2.13954761E-03  -2.42030853E-03  -1.94758642E-03   5.93900040E-04
              549  -2.04702257E-03  -2.29755766E-03  -1.77717616E-03   7.05644081E-04
              550  -1.94174331E-03  -2.15097819E-03  -1.58101134E-03   8.21969472E-04
              551  -1.82112691E-03  -1.98362046E-03  -1.36516290E-03   9.39039863E-04
              552  -1.69068784E-03  -1.78989151E-03  -1.12028653E-03   1.05732423E-03
              553  -1.55477948E-03  -1.56543427E-03  -8.43227492E-04   1.18028279E-03
              554  -1.41320506E-03  -1.31080323E-03  -5.39595319E-04   1.30729424E-03
              555  -1.25342654E-03  -1.04287115E-03  -2.20402304E-04   1.42811425E-03
              556  -1.08241488E-03  -7.53413886E-04   1.25676306E-04   1.54320046E-03
              557  -9.08735965E-04  -4.26403363E-04   5.07135119E-04   1.65989145E-03
              558  -7.37104332E-04  -5.65872324E-05   9.21476865E-04   1.77882612E-03
              559  -5.69438096E-04   3.44228843E-04   1.35219167E-03   1.89443945E-03
              560  -3.64472391E-04   6.80884637E-04   1.78361475E-03   1.97303039E-03
              561  -1.88222766E-04   9.54836083E-04   2.18578591E-03   2.04209122E-03
              562  -1.19852775E-04   1.24941883E-03   2.41613737E-03   1.98632292E-03
              563  -1.63110293E-04   1.50258571E-03   2.44276342E-03   1.83549547E-03
              564  -2.19990077E-04   1.65546534E-03   2.28810962E-03   1.59062189E-03
              565  -2.46192678E-04   1.64415967E-03   2.13543745E-03   1.37154234E-03
              566  -2.71303783E-04   1.61716563E-03   1.99055229E-03   1.16633624E-03
              567  -2.81741784E-04   1.57451187E-03   1.85718294E-03   9.87078412E-04
              568  -2.75620085E-04   1.50357699E-03   1.73153309E-03   8.23383802E-04
              569  -2.60328932E-04   1.41605327E-03   1.61418621E-03   6.82228245E-04
              570  -2.38557870E-04   1.31644518E-03   1.50490296E-03   5.61017892E-04
              571  -2.13187479E-04   1.21010898E-03   1.40361267E-03   4.59858711E-04
              572  -1.86824909E-04   1.10085774E-03   1.30984583E-03   3.76036798E-04
              573  -1.12386618E-03  -2.31320364E-03  -1.11760630E-03   1.13090638E-04
              574  -1.10220606E-03  -2.27959431E-03  -1.07705896E-03   2.27809593E-04
              575  -1.06559426E-03  -2.23184237E-03  -1.02845090E-03   3.45319830E-04
              576  -1.01938390E-03  -2.16790522E-03  -9.43975523E-04   4.58335271E-04
              577  -9.58858291E-04  -2.08445475E-03  -8.26267584E-04   5.74041682E-04
              578  -8.88029754E-04  -1.97272119E-03  -6.79696852E-04   6.95867464E-04
              579  -8.02658091E-04  -1.83820887E-03  -5.16116677E-04   8.19071545E-04
              580  -7.06451014E-04  -1.68390060E-03  -3.34751036E-04   9.44973668E-04
              581  -6.04828703E-04  -1.50705432E-03  -1.25034683E-04   1.07256626E-03
              582  -4.94495325E-04  -1.30869448E-03   1.14990333E-04   1.20137702E-03
              583  -3.67896777E-04  -1.08564831E-03   3.68542707E-04   1.32370286E-03
              584  -2.23544630E-04  -8.42805952E-04   6.34125026E-04   1.44260796E-03
              585  -9.80489422E-05  -5.55408711E-04   9.47995693E-04   1.57354912E-03
              586   2.83447516E-05  -2.45284376E-04   1.28906954E-03   1.70546083E-03
              587   1.86367892E-04   3.33714124E-05   1.62277138E-03   1.80967466E-03
              588   3.41164181E-04   2.58593587E-04   1.96476560E-03   1.90206664E-03
              589   4.43051278E-04   5.22307935E-04   2.20082351E-03   1.92377612E-03
              590   4.22071957E-04   7.88364792E-04   2.34951405E-03   1.91554672E-03
              591   3.13024269E-04   1.08361593E-03   2.31842883E-03   1.76988239E-03
              592   2.00485913E-04   1.27497548E-03   2.19705747E-03   1.60879130E-03
              593   1.29039661E-04   1.32308365E-03   2.06557591E-03   1.43408251E-03
              594   6.23563246E-05   1.34944601E-03   1.93737051E-03   1.26206805E-03
              595   4.55183090E-06   1.37498206E-03   1.82023935E-03   1.10270269E-03
              596  -3.08700473E-05   1.36716058E-03   1.70847273E-03   9.51198919E-04
              597  -5.13961349E-05   1.33154588E-03   1.60120893E-03   8.10267869E-04
              598  -6.40634171E-05   1.28272432E-03   1.50029291E-03   6.85316394E-04
              599  -6.77493517E-05   1.22117088E-03   1.40578602E-03   5.73174213E-04
              600  -6.41963925E-05   1.14840362E-03   1.31718651E-03   4.76372312E-04
              601  -5.56930972E-05   1.06726715E-03   1.23416004E-03   3.93322116E-04
              602  -4.38378920E-05   9.81225399E-04   1.15673244E-03   3.23629996E-04
              603   6.30188151E-04   6.97871204E-04   7.74034241E-04   1.72727843E-04
              604   3.54852906E-04   6.91333087E-04   6.01056730E-04   5.34042156E-05
              605  -1.24434370E-03  -1.43663769E-04   7.95955537E-04   5.17174194E-04
              606   1.29468774E-03   2.62434944E-04   1.44741288E-03   4.46011516E-04
              607   5.86240087E-04   7.95943779E-04   1.08463317E-03   4.70786821E-04
              608  -1.67318562E-04   1.09314853E-04   6.88632368E-04   1.91045867E-04
              609   2.71062134E-04   6.47330307E-04   6.59660262E-04   6.37386111E-05
              610   3.50741873E-04   8.42601759E-04   9.15203302E-04   2.87392584E-04
              611   1.11878617E-03   4.22612677E-04   1.56968518E-03   8.02286784E-04
              612  -2.84075667E-03  -2.57191696E-05   1.35738915E-03   6.63880783E-04
              613   4.28122512E-05   3.39687860E-04   6.82678132E-04   9.80756231E-05
              614   1.90525793E-03  -3.81952326E-04   2.00486043E-03   4.68942482E-04
              615   8.24962801E-04   6.76775002E-04   1.52666029E-03   8.73147335E-04
              616   4.59431467E-04   9.30363545E-04   1.29108899E-03   6.59912126E-04
              617  -1.18336733E-03   1.73382083E-04   1.27225777E-03   4.56651847E-04
              618   1.55821524E-03  -1.55928119E-05   1.99064566E-03   1.02613319E-03
              619   2.05041419E-04   8.70879565E-04   9.40073398E-04   2.59607972E-04
              620   1.51127635E-04   4.82087402E-04   5.99505554E-04   1.55146008E-05
              621   3.27311805E-04   9.77954012E-04   1.21114054E-03   5.57650172E-04
              622   2.24968375E-04   7.12694135E-04   8.14598985E-04   1.53665897E-04
              623  -4.21024102E-04   3.95409937E-04   1.05088099E-03   2.29708923E-04
              624   8.72707111E-04   5.74911013E-04   9.32069088E-04   1.60595984E-04
              625  -1.40808744E-03  -8.92682583E-05   5.86823036E-04   4.35062480E-04
              626   1.19992904E-03   3.41064704E-04   1.97472423E-03   1.25884416E-03
              627   1.76745339E-03  -1.10751553E-03   1.76247454E-03   3.92353191E-04
              628   1.61010935E-03  -8.32754129E-04   1.89802551E-03   9.59061144E-04
              629  -7.83624928E-05   5.45749266E-04   1.00048142E-03   1.73639986E-04
              630   6.04498084E-04   8.70419957E-04   1.60808431E-03   1.00493594E-03
              631   4.64950135E-04   7.04745355E-04   5.02253883E-04   2.29603302E-05
              632  -2.47986475E-03  -2.41778434E-05   9.16040852E-04   4.54310910E-04
              633   4.39030933E-04   7.11798028E-04   5.95070655E-04   6.93967013E-05
              634  -4.41559870E-03  -8.62625348E-06   1.96621474E-03   6.63490500E-04
              635  -4.83338896E-04  -1.21791330E-04   5.01398579E-04   3.43354826E-04
              636   1.84798380E-04   1.02219195E-03   1.16274995E-03   4.52218112E-04
              637   1.56941870E-03  -2.33515912E-05   2.26045260E-03   1.39198871E-03
              638   9.77058895E-04   5.60365443E-04   1.98761048E-03   1.33774616E-03
              639   7.99404806E-05   5.78389969E-04   8.17404245E-04   1.28523941E-04
              640   1.65160236E-05   1.63114146E-05   4.47124505E-04   1.17480478E-04
              641   1.67608698E-04   1.92116480E-04   4.38733754E-04  -3.51907875E-05
              642   2.41553455E-04   3.62585299E-04   4.06307692E-04  -6.00086787E-05
              643   9.17283702E-04   5.59914683E-04   1.13125506E-03   3.93641880E-04
              644  -2.41226330E-03   1.90865569E-04   1.77331653E-03   6.25949702E-04
              645   1.42282248E-03   1.31013730E-04   1.48131058E-03   2.91838485E-04
              646   3.82379134E-04   1.00744446E-03   1.39935559E-03   7.57429516E-04
              647   1.69169740E-03  -6.51080802E-04   2.15862528E-03   1.16039300E-03
              648   1.62045675E-04   9.05094261E-04   1.00003206E-03   2.88872456E-04
              649   7.71997031E-04   6.83704682E-04   1.22812460E-03   5.78054925E-04
              650   2.89624353E-04   5.29167126E-04   4.56260401E-04  -5.40383880E-05
              651   3.17780185E-04   6.05465961E-04   3.99686658E-04  -7.02078396E-05
              652   5.45302522E-04   6.90841232E-04   5.49565477E-04   3.74694246E-05
              653   4.30537155E-04   7.09457672E-04   5.14119864E-04   1.30286171E-05
              654   4.25161998E-04   7.63677352E-04   7.47241895E-04   1.71905383E-04
              655  -1.00156059E-03   4.33321489E-04   1.55226793E-03   2.81261251E-04
              656  -3.65734217E-04   6.41226768E-04   1.24507677E-03   2.35689105E-04
              657   1.55919872E-04   5.48402080E-04   6.93674607E-04   5.79452462E-05
              658  -3.56299081E-03  -2.04619253E-04   1.33956317E-03   4.03742393E-04
              659  -8.18421016E-04  -6.86390485E-05   5.18518791E-04   4.62392665E-04
              660   5.76479710E-04   7.29768362E-04   7.92650157E-04   1.90983512E-04
              661  -1.58591114E-03  -1.27732608E-04   9.92422691E-04   5.75891638E-04
              662   1.59956363E-03  -4.54037945E-05   1.80835987E-03   6.60331803E-04
              663   1.27939088E-03   2.68318632E-04   1.56138523E-03   6.65236323E-04
              664   9.79355071E-04   4.91896761E-04   9.83485719E-04   9.67240921E-05
              665  -1.82217127E-03   5.11258375E-04   1.70292717E-03   3.48726229E-04
              666   3.09049792E-04   7.15001195E-04   7.05555547E-04   1.11936068E-04
              667   2.56274914E-04   1.05511618E-03   1.31487218E-03   6.61363360E-04
              668  -5.11108141E-04   5.70712262E-04   1.27774978E-03   2.73208396E-04
              669   7.69965409E-04   7.35022477E-04   1.78758590E-03   1.17385236E-03
              670   9.77142947E-04   5.13591454E-04   1.08793622E-03   2.75853090E-04
              671   4.77356109E-04   9.71392263E-04   1.58111309E-03   9.66581574E-04
              672   4.33473935E-04   8.50661716E-04   9.83165228E-04   3.66546621E-04
              673   1.62761577E-03  -3.45139124E-04   2.20652972E-03   1.34977233E-03
              674   2.02079653E-03  -5.94366458E-04   2.11506034E-03   2.29934871E-04
              675   1.68913772E-04   7.58094946E-04   8.57601524E-04   1.79361290E-04
              676   1.55895727E-03  -1.17667811E-03   1.55916740E-03   2.12734230E-04
              677   6.16397767E-04   8.30175297E-04   1.37417484E-03   7.49496627E-04
              678  -3.33898049E-03   1.43224330E-04   1.99322798E-03   5.81377128E-04
              679  -5.59302885E-03   2.16446279E-06   1.93471997E-03   3.44531611E-04
              680   1.23479031E-03   2.46667390E-04   2.20639212E-03   1.51687744E-03
              681  -2.91738892E-04   2.38238121E-04   8.50249606E-04   2.18343717E-04
              682  -2.08919751E-03  -7.81175186E-06   6.81367528E-04   4.07794578E-04
              683   1.80551229E-04   9.56833072E-04   1.07978075E-03   3.74194991E-04
              684   9.87613923E-04   5.47989272E-04   1.63852307E-03   9.41201521E-04
              685  -1.83595970E-04  -5.28768469E-05   5.01350558E-04   2.26954173E-04
              686  -1.70549750E-03  -1.08381471E-04   7.63913151E-04   5.57727821E-04
              687  -7.23092235E-04   4.44533180E-05   9.36510332E-04   3.80761863E-04
              688  -5.03038573E-05   2.32443170E-04   6.93567155E-04   1.46663762E-04
              689   9.96585586E-04  -1.12287793E-03   1.24962756E-03   9.08514019E-04
              690   7.84141943E-04   6.13978424E-04   7.95107160E-04   6.98295335E-05
              691   3.29500006E-04   6.85981126E-04   3.27332848E-04  -1.95521388E-05
              692  -4.36315095E-05   7.33568566E-04   9.85986670E-04   2.11094564E-04
              693   2.55353254E-04   9.38979792E-04   1.06421276E-03   3.98227305E-04
              694   2.47013348E-04   5.84709574E-04   6.42247498E-04   5.12048537E-05
              695   9.56904492E-04  -1.37602608E-03   1.04212551E-03   5.11682243E-04
              696  -9.53622221E-04  -1.39028314E-04   3.97309050E-04   3.92951159E-04
              697   1.54902379E-03   5.81081804E-06   1.67236291E-03   4.68756218E-04
              698   3.12630902E-04   6.40549406E-04   5.75080165E-04   2.90763146E-05
              699   5.19971771E-04   7.52160326E-04   7.90972263E-04   2.14509098E-04
              700   2.95259815E-04   6.15245313E-04   4.53249610E-04  -4.08349297E-05
              701   6.01819484E-04   8.79283180E-04   1.80080696E-03   1.20637938E-03
              702   3.53850075E-04   7.71151623E-04   7.60066905E-04   1.55733112E-04
              703  -1.92453922E-03  -1.34241673E-05   1.33638538E-03   5.99207822E-04
              704   2.52514146E-04   7.23538920E-04   7.72474159E-04   1.33570851E-04
              705  -3.15270212E-04   8.61903187E-04   1.23421033E-03   2.67934432E-04
              706   1.83981855E-03  -3.55917669E-04   2.17511971E-03   9.90427216E-04
              707   4.00753575E-04   9.25832544E-04   1.14666368E-03   5.00099908E-04
              708   6.94454066E-04   7.59176095E-04   1.29223382E-03   6.57918863E-04
              709   2.52469967E-04   4.91025858E-04   5.13367238E-04  -1.28059355E-05
              710  -3.49592301E-03  -4.34149333E-05   1.06211985E-03   3.20113206E-04
              711   8.68787232E-04   6.10922521E-04   1.24299573E-03   5.59691864E-04
              712  -6.53121970E-04  -1.06946049E-04   6.57565077E-04   4.15491668E-04
              713   2.09881982E-04   3.34007142E-04   4.58469440E-04  -1.47773071E-05
              714   1.12295784E-04   4.53106448E-04   6.86734566E-04   6.74187759E-05
              715   1.18576037E-03   3.48445174E-04   1.26644596E-03   2.89364223E-04
              716  -1.44578971E-05   1.22173951E-04   5.57452091E-04   1.33094043E-04
              717  -4.96787531E-03   1.31589914E-05   1.59846409E-03   3.04983696E-04
              718  -2.17427174E-03  -2.18707806E-04   1.08567916E-03   6.54215284E-04
              719   3.13057884E-04   6.33132819E-04   3.49217269E-04  -4.45734113E-05
              720   3.41825071E-04   6.68553635E-04   3.71412229E-04  -3.93101946E-05
              721   1.92491119E-04   1.07678084E-03   1.29615341E-03   5.97688486E-04
              722   2.81637971E-04   1.09461311E-03   1.48778665E-03   8.31100740E-04
              723   7.95408851E-04   6.24033099E-04   9.24041029E-04   2.32543549E-04
              724   1.49754167E-04   3.31800838E-04   5.39774192E-04   1.64170324E-05
              725   1.40121870E-03  -9.68392633E-05   2.26208544E-03   1.53912767E-03
              726   1.11868198E-03   4.47180646E-04   2.22183834E-03   1.56182644E-03
              727  -3.54750780E-04  -1.42317193E-04   3.92413465E-04   2.96849961E-04
              728  -3.79692967E-04  -1.69432915E-05   7.04729231E-04   2.93266581E-04
              729   1.18879623E-04   8.85430840E-04   9.97363008E-04   2.65018316E-04
              730   1.59685954E-03  -5.71369310E-05   1.67503452E-03   1.75575740E-04
              731  -5.00931917E-03   1.14765324E-04   2.35311966E-03   6.01283798E-04
              732  -4.41910204E-04   1.61696706E-04   8.42226786E-04   3.51954572E-04
              733   1.08966639E-03  -9.70696390E-04   1.40718801E-03   1.03010226E-03
              734   9.57273529E-04  -1.25605706E-03   1.15809438E-03   7.71672174E-04
              735   1.19295779E-04   6.93824841E-04   8.33945640E-04   1.41452358E-04
              736   3.97460302E-04   6.80436729E-04   5.62451954E-04   3.33905482E-05
              737   3.64552514E-04   6.70624315E-04   4.47053404E-04  -2.42512378E-05
              738   5.27772529E-04   8.56146449E-04   1.18091214E-03   5.60603279E-04
              739  -1.34050183E-03  -4.68042053E-05   1.09947671E-03   5.31789497E-04
              740  -8.05443793E-04   4.27040155E-04   1.33520726E-03   2.97581166E-04
              741   1.24546315E-03   2.87794741E-04   1.28925417E-03   1.30197455E-04
              742   9.09141439E-04  -1.45251455E-03   9.29366564E-04   3.91671958E-04
              743   1.64369738E-03  -8.50988072E-05   1.69583398E-03   2.73302983E-04
              744   7.19373696E-04   6.79570192E-04   9.74031864E-04   3.35387216E-04
              745  -2.16485041E-05   5.02252951E-04   8.59053165E-04   1.39683048E-04
              746   3.45122651E-04   1.07290293E-03   1.57733285E-03   9.38725832E-04
              747   1.40083648E-04   1.09949126E-03   1.29302556E-03   5.86376991E-04
              748   9.48865258E-04  -1.33131898E-03   1.10322074E-03   6.34085445E-04
              749   1.35030656E-04   7.52594497E-05   3.51894239E-04   2.54231745E-05
              750  -2.77627283E-03   4.98677313E-04   2.26316252E-03   4.00785008E-04
              751  -3.20930965E-03   8.88749037E-06   1.70019129E-03   4.58620110E-04
              752   2.70743767E-04   3.94413830E-04   3.66941269E-04  -6.93681141E-05
              753   1.10915664E-03   4.20103839E-04   1.28592248E-03   4.33093199E-04
              754   1.22017736E-04   9.49436158E-04   1.06804050E-03   3.29488859E-04
              755   5.13828942E-04   7.23258650E-04   6.64582942E-04   1.09242465E-04
              756  -2.75912788E-03  -1.98936614E-05   8.23516399E-04   2.79480970E-04
              757   2.14322863E-04   7.87999248E-04   8.60360975E-04   1.85039928E-04
              758   1.92930142E-03  -5.17725421E-04   2.16599391E-03   7.99454399E-04
              759   8.69321579E-04   6.36454439E-04   2.03514146E-03   1.44639215E-03
              760   1.26134849E-03  -7.01245328E-04   1.74374168E-03   1.21910975E-03
              761   1.41617539E-03  -3.26094829E-04   2.10669101E-03   1.44673360E-03
              762   2.07829260E-04   1.91894665E-04   3.64433276E-04  -4.10428402E-05
              763   1.02267368E-03   5.10920421E-04   1.83356262E-03   1.15679600E-03
              764   6.91739901E-04   7.95431319E-04   1.57827232E-03   9.58915683E-04
              765   4.37656417E-04   1.03155675E-03   1.70240947E-03   1.07942731E-03
              766  -1.21350487E-04  -9.65144063E-05   3.74983036E-04   2.03335090E-04
              767  -1.90665666E-03  -1.45193317E-05   5.42372058E-04   2.09425372E-04
              768   4.58945433E-05   6.88543660E-04   9.14704520E-04   2.01956558E-04
              769  -4.26005013E-03  -1.45642225E-05   1.31159043E-03   2.89738207E-04
              770   1.56042492E-03  -1.19720626E-05   2.14721728E-03   1.24422763E-03
              771  -1.58367155E-04   7.85280485E-04   1.10263808E-03   2.41697300E-04
              772  -1.45949051E-03   7.66440702E-04   1.91304774E-03   3.31758638E-04
              773  -2.93763448E-03  -8.19669658E-05   1.15023903E-03   5.34064835E-04
              774   5.36921143E-04   8.99111095E-04   1.46768277E-03   8.53237580E-04
              775   3.61748302E-04   9.85098071E-04   1.24240573E-03   5.86180948E-04
              776   3.26365291E-04   6.75406773E-04   3.33118456E-04  -3.61951243E-05
              777  -2.03689141E-03   5.72916761E-04   2.01029121E-03   4.05573315E-04
              778   5.36461012E-04   7.08379550E-04   6.17114245E-04   6.90470770E-05
              779   7.19661824E-04   7.55427638E-04   1.98797905E-03   1.43661897E-03
              780   4.90640465E-04   9.88615095E-04   1.81054487E-03   1.20687601E-03
              781  -8.91024363E-04   9.13425349E-04   1.62753882E-03   2.94950150E-04
              782   6.09930546E-04   6.84235943E-04   6.39631297E-04   6.27833942E-05
              783   2.11242051E-03  -9.31413029E-04   2.12125015E-03   2.35333682E-05
              784   2.74312217E-04   8.20846413E-04   8.69497715E-04   2.31749233E-04
              785   1.31909721E-04   1.00744306E-03   1.14472688E-03   4.11615649E-04
              786  -6.46019471E-04   9.11618001E-04   1.49957358E-03   3.06783681E-04
              787  -1.57931951E-04   1.05441657E-04   5.77434665E-04   2.13670544E-04
              788  -1.96700497E-03  -1.39382319E-04   9.39832826E-04   5.97725739E-04
              789  -1.00074569E-03  -1.15961142E-04   6.30584836E-04   4.29194828E-04
              790   1.72322581E-03  -9.83943930E-04   1.84757367E-03   6.73579227E-04
              791   1.80614949E-03  -1.00406457E-03   1.87019375E-03   5.45982097E-04
              792   2.77362502E-04   5.84354973E-04   5.49006159E-04  -6.77071148E-06
              793   2.23238705E-04   9.07639682E-04   1.01976749E-03   3.51751078E-04
              794   1.34563819E-03   2.07000907E-04   1.93339295E-03   1.11691223E-03
              795   1.16579444E-03   3.81398917E-04   1.76597724E-03   1.01526454E-03
              796   3.86259984E-04   8.16018670E-04   8.15013424E-04   2.09276433E-04
              797   3.05558380E-04   1.03930826E-03   1.34714763E-03   6.96028699E-04
              798   6.47833163E-04   7.40521005E-04   1.01671973E-03   4.01094818E-04
              799   1.36938412E-04   1.06667622E-03   1.22466718E-03   4.96134744E-04
              800   1.56756863E-03  -2.66513307E-05   1.87861954E-03   8.37259344E-04
              801   4.47025086E-04   7.28722254E-04   6.86073210E-04   1.25948005E-04
              802   1.68053503E-03  -7.33071123E-04   2.01043580E-03   1.05071650E-03
              803   2.62503338E-04   1.00755028E-03   1.21504150E-03   5.51106408E-04
              804   4.99007292E-04   7.97225686E-04   9.02244356E-04   3.00330634E-04
              805  -1.82490202E-03   2.25428317E-04   1.53823977E-03   5.13835053E-04
              806  -4.58752038E-04   9.06576228E-04   1.37310533E-03   2.90033029E-04
              807   1.60999974E-04   8.39556276E-04   9.27499961E-04   2.23488489E-04
              808  -9.19119455E-04  -7.97188404E-05   8.60333326E-04   4.87181096E-04
              809   6.54956093E-04  -1.57163851E-03   6.14016259E-04   1.65527832E-04
              810   1.04079349E-03   4.79511975E-04   1.36017345E-03   5.96605532E-04
              811   3.41898325E-04   9.11677431E-04   1.06827170E-03   4.19311284E-04
              812   9.51062597E-04   5.66792267E-04   1.45079405E-03   7.51610729E-04
              813   4.40154836E-04   7.07992236E-04   4.38359333E-04  -5.50363256E-06
              814  -3.79360211E-03  -2.93625380E-05   1.58755551E-03   5.83022658E-04
              815   1.83636934E-04   6.69848465E-04   7.72849191E-04   1.19373530E-04
              816   1.05757290E-03   4.84225427E-04   1.98986242E-03   1.32349692E-03
              817   5.94373792E-04   6.89184875E-04   5.89092611E-04   2.02993433E-05
              818   1.50713965E-03  -9.68904351E-04   1.65599224E-03   7.65457575E-04
              819   8.70803779E-04   6.25311630E-04   1.38983107E-03   7.19893898E-04
              820   2.84831709E-04   4.80499497E-04   3.61401151E-04  -8.81668457E-05
              821  -1.51012314E-03  -3.04713340E-05   4.17943607E-04   2.43976810E-05
              822   4.32582281E-04   7.02623045E-04   4.43498662E-04   4.70624855E-06
              823   2.76851759E-04   6.15614175E-04   4.86419682E-04  -2.88476276E-05
              824   1.00963621E-03   4.76316985E-04   1.04968075E-03   8.92330718E-05
              825   1.15040551E-04   1.20607758E-04   4.41437645E-04   4.27661944E-05
              826  -2.62608100E-03   1.36245126E-05   1.54399395E-03   6.30250666E-04
              827   1.41526002E-03   1.33627327E-04   2.14141142E-03   1.35396328E-03
              828  -3.19043198E-03   2.98093131E-04   2.42580567E-03   3.68601264E-04
              829   1.76693487E-03  -3.58314457E-04   2.22307188E-03   1.18249364E-03
              830  -2.17551179E-03   2.87136154E-05   7.80850183E-04   4.78770904E-04
              831  -2.60481494E-04   5.54293045E-04   1.06897962E-03   2.07978839E-04
              832  -2.39267014E-03  -8.34818638E-05   6.62741542E-04   4.12789195E-05
              833   2.31378741E-04   1.10211375E-03   1.40584121E-03   7.28904270E-04
              834   3.03599780E-04   4.98138077E-04   3.26105132E-04  -1.19499171E-04
              835  -6.30563451E-03   4.55636364E-05   2.32993625E-03   3.75718868E-04
              836   1.30947062E-03   2.42128852E-04   1.74873555E-03   8.90509575E-04
              837  -2.10413104E-03  -1.12144371E-04   1.18188886E-03   6.40167156E-04
              838  -1.16352737E-03   8.91346135E-04   1.77534041E-03   2.91955192E-04
              839   2.04247073E-04   4.71126434E-04   5.59847103E-04   1.19827091E-05
              840   6.96651696E-04   6.62364997E-04   7.65607925E-04   1.28097250E-04
              841   2.44707800E-04   2.66179151E-04   3.40127299E-04  -1.12818561E-04
              842  -1.35429087E-03   4.32398519E-04   1.60705543E-03   4.30961838E-04
              843   1.16361887E-04   8.13503866E-04   9.27305198E-04   2.09826190E-04
              844   2.33246828E-04   6.62153470E-04   7.43863522E-04   1.04674349E-04
              845   1.03842537E-03   5.36651351E-04   2.21983460E-03   1.60370511E-03
              846   1.07552554E-03   4.30672051E-04   1.10471388E-03   1.61696240E-04
              847   1.38673570E-03   1.75118053E-04   1.59370853E-03   5.74687845E-04
              848   8.96708341E-04   6.25366520E-04   1.77765265E-03   1.13098836E-03
              849  -7.78169371E-04  -1.23436039E-04   4.35799360E-04   3.87192820E-04
              850   2.01779825E-04   5.76344610E-04   6.69506437E-04   5.58729880E-05
              851  -1.32862944E-03  -7.91865896E-05   4.56086651E-04   3.36388039E-04
              852   3.47690329E-05  -2.67837895E-05   3.59082915E-04   1.07170265E-04
              853   1.16788712E-03  -6.00593630E-04   1.71315321E-03   1.29322370E-03
              854  -3.91725916E-03   1.62303753E-04   2.37001851E-03   5.30648045E-04
              855  -6.12182543E-04   2.60099798E-04   1.01773324E-03   2.92770361E-04
              856   8.02201394E-05   2.20871239E-04   5.50336379E-04   6.64518302E-05
              857  -1.46781545E-04   3.63943604E-04   8.50913930E-04   1.57550137E-04
              858   7.88296980E-04  -1.54749048E-03   8.02009832E-04   2.79140950E-04
              859   2.96885992E-04   4.51169239E-04   4.38816613E-04  -2.94941929E-05
              860   1.52059747E-05  -9.06447349E-06   5.96509517E-06  -2.08696952E-06
              861   2.74749618E-06  -3.01100554E-05   2.33185765E-05   2.03984528E-05
              862   5.70562577E-07  -3.08075556E-07   1.00581772E-07  -1.26409660E-07
              863   5.66022136E-05   1.18047392E-04   2.02448064E-05  -6.60591613E-05
              864   1.97596659E-08  -2.19343814E-08   1.25383426E-09   5.11792164E-09
              865  -1.31934707E-04  -3.80572528E-05   8.19457127E-05   1.13026326E-04
              866   3.57747899E-06   2.47381513E-06   2.84928689E-07  -3.54900203E-06
              867  -8.34134994E-07  -1.49440200E-06   1.00071088E-06   1.50312826E-06
              868   8.87022106E-05   7.00710298E-05   5.27084303E-05  -5.68375835E-05
              869   2.10358448E-05   4.81444768E-05   3.79184235E-06  -3.20312538E-05
              870   9.29081507E-05   3.69105139E-04   7.33015331E-05  -1.16066309E-04
              871   7.18320621E-08   4.89804002E-08  -2.62746691E-09  -7.42571373E-08
              872  -9.46930427E-08  -8.18648971E-08   4.24874607E-08   1.08161487E-07
              873   1.06738218E-08   3.71895403E-08  -9.44307632E-10  -2.30366037E-08
              874  -9.08916945E-07  -6.04408115E-07   4.27425618E-07   7.51100629E-07
              875   3.64176231E-07   1.13949682E-06  -3.09399759E-08  -7.28629516E-07
              876  -6.40565304E-06  -3.93342225E-06   3.43731563E-06   5.35015170E-06
              877  -2.64645787E-05  -1.09205603E-05   1.29300552E-05   2.19920457E-05
              878  -2.09561294E-05  -8.49910866E-05   1.12735128E-04   9.81993944E-05
              879   4.66639394E-05   9.12111136E-06   1.44393734E-05  -3.07964547E-05
              880   1.50008244E-04   1.98803042E-04   8.34852108E-05  -1.22902420E-04
              881  -1.01009748E-04  -1.70669864E-05   3.67800385E-05   4.60815245E-05
              882  -2.17134133E-08  -8.73639916E-09  -4.49340370E-10   1.55465116E-08
              883   1.13175197E-07   2.66308774E-07  -1.49426977E-08  -2.20612662E-07
              884   3.83363658E-06   1.64320045E-05  -1.17898367E-08  -9.02504871E-06
              885   1.16046896E-04   8.76308150E-06   1.33430847E-04  -2.03364834E-05
              886  -4.26882732E-04  -5.05630233E-05   1.61032032E-04   1.63061210E-04
              887  -6.70621390E-08  -2.05890522E-08   1.30089006E-08   4.07228917E-08
              888   1.77696563E-07  -4.79083937E-08   1.09743388E-08  -8.94572665E-08
              889  -3.26394286E-07  -1.26854843E-07   1.13324106E-07   2.14455781E-07
              890  -4.16683179E-06  -2.28329782E-06   1.98669750E-06   3.53714699E-06
              891   1.12626607E-04   5.32866165E-04   1.24130951E-04  -5.37659253E-05
              892   2.82730671E-05   1.47324565E-04   1.27158373E-05  -5.04227355E-05
              893   5.02637522E-06  -3.36840958E-06   1.52625580E-06  -9.23228072E-07
              894   1.23325199E-08   9.24303745E-10  -3.59421826E-10  -6.07471362E-09
              895   1.14553647E-08   8.08547895E-08  -5.78297810E-09  -3.96328694E-08
              896   6.98382394E-07   5.24943198E-06  -1.37394849E-07  -2.71934709E-06
              897   1.55863381E-06  -4.97911117E-07   2.81250692E-07  -6.36935511E-07
              898   1.36959652E-05   6.06213871E-06   1.59186391E-06  -1.15899911E-05
              899  -1.82149404E-06  -7.66390599E-07   6.74095588E-07   9.52886069E-07
              900   5.30149258E-10   2.89523882E-07  -1.81228152E-08  -8.74457697E-08
              901   1.42009158E-04   3.95833020E-04   1.19978533E-04  -1.25646678E-04
              902   2.75844521E-08   1.91738145E-08  -2.16426899E-09  -2.94960181E-08
              903   3.57714598E-05   2.64912203E-04   2.96375874E-05  -5.50197583E-05
              904   9.47043361E-07   3.18133862E-05  -3.33099933E-07  -9.20695038E-06
              905   2.38072655E-08   9.23900927E-07  -5.97157168E-08  -3.20628800E-07
              906  -5.72135759E-05  -1.02484548E-04   1.60637777E-04   1.22497368E-04
              907   5.72605714E-08  -4.06022025E-08   6.08888628E-09  -3.55954399E-09
              908   2.36351561E-09  -9.95721017E-09  -1.47994428E-09   6.90606594E-09
              909   2.42511305E-07   4.41033791E-07  -1.41396024E-08  -3.59781154E-07
              910   2.54469924E-05  -4.02465121E-05   3.68768997E-05   1.83373086E-05
              911   3.17579106E-05   7.98848414E-05   8.18425815E-06  -4.61447380E-05
              912   1.51316499E-07  -3.08968822E-07   8.91504897E-08   1.31704667E-07
              913  -6.40179496E-04  -1.34362290E-05   1.93954489E-04   1.26064289E-04
              914   9.17103262E-06   6.67610875E-05   1.59737078E-06  -2.54864881E-05
              915   6.72521537E-07   5.22427654E-05  -5.82489349E-07  -9.90238368E-06
              916  -2.22343516E-07   1.27045596E-05  -6.48013668E-07  -3.29544537E-06
              917  -1.66159552E-05  -2.10753524E-06   4.97796282E-06   5.41223471E-06
              918  -2.48987249E-07  -4.91015228E-08   6.62094948E-08   1.23680067E-07
              919   3.57672343E-06  -9.19815534E-07   5.74233866E-07  -1.42625765E-06
              920   8.69395226E-05  -3.31533265E-05   1.59454212E-04   1.40071252E-05
              921  -2.12782761E-05  -5.66589188E-06   8.04234605E-06   1.34900547E-05
              922  -1.10589167E-06  -9.58657651E-08   2.92049691E-07   3.42274831E-07
              923   1.11836130E-06  -1.61680309E-05   1.04320688E-05   1.23407153E-05
              924   2.44762987E-07   3.38682594E-06  -1.20767936E-07  -1.48731340E-06
              925   9.70453584E-07   1.41762087E-06   2.85883512E-08  -1.27728981E-06
              926   2.14155298E-05   1.35136161E-05   4.45978549E-06  -2.13684671E-05
              927   1.81125559E-09   6.85209827E-08  -3.41681594E-09  -1.93243608E-08
              928  -1.84047579E-07  -1.02299384E-06   4.71119705E-07   8.74433169E-07
              929  -5.03072739E-09   5.12619181E-07  -3.83157364E-08  -1.83736930E-07
              930  -3.40276785E-08  -2.58728017E-09  -7.80368492E-10   1.04091251E-08
              931  -4.85205848E-04  -9.13027106E-05   2.33121275E-04   2.44271505E-04
              932  -4.20570210E-08  -1.02245981E-08   4.42303838E-09   2.44785454E-08
              933  -2.03233572E-08  -1.89387279E-08   3.54390872E-09   1.85295512E-08
              934  -4.83255601E-04  -1.52813900E-05   1.32552508E-04   8.16760366E-05
              935  -6.66438646E-05  -9.86012219E-06   2.34402851E-05   2.61329515E-05
              936   1.81884578E-04   2.84681359E-04   1.20021861E-04  -1.18055759E-04
              937   5.81924482E-08   1.93816186E-06  -1.10522272E-07  -5.81423478E-07
              938   1.83750293E-04   5.25838521E-04   1.72715692E-04  -9.94580041E-05
              939  -1.88349281E-06  -1.68545171E-07   5.14646388E-07   5.16711566E-07
              940   7.04316917E-05   3.73203038E-05   2.37101849E-05  -5.61470879E-05
              941   3.25259748E-07   2.01337152E-05  -7.67222730E-07  -5.03404362E-06
              942  -2.14195985E-04  -8.57725718E-06   5.95771198E-05   4.85024066E-05
              943   9.73379088E-07   1.54134824E-07   8.10231100E-08  -7.07116669E-07
              944   6.81338133E-05   4.03183192E-04   6.54170290E-05  -4.93718107E-05
              945   2.22878487E-04   1.45233425E-04   1.79501745E-04  -1.11838497E-04
              946   5.64139418E-06  -7.89005026E-06   3.93636856E-06   2.25878398E-06
              947  -1.05671738E-08  -7.36224592E-09  -3.14224291E-09   8.84491946E-09
              948   4.64669725E-08  -8.72474004E-09   3.42323392E-13  -2.71810876E-08
              949   1.19297603E-08   1.10550644E-08   2.44960363E-09  -9.05811426E-09
              950  -5.60708577E-06  -4.69525986E-07   1.47766423E-06   1.64329185E-06
              951   7.13658210E-06   3.51294443E-06   8.63340404E-07  -6.41155930E-06
              952  -3.60364029E-05  -5.10230166E-05   4.78614529E-05   5.93159129E-05
              953  -3.40833976E-05  -1.83049269E-05   2.02131796E-05   2.95175851E-05
              954  -5.07355326E-05  -2.00819431E-06   1.61089483E-05   2.01508155E-05
              955   7.22461409E-05  -3.92944385E-05   6.53208626E-05   4.05846959E-06
              956   4.25308463E-05  -8.56066545E-05   2.13227191E-04   8.60445653E-05
              957   3.12747870E-05   3.07938550E-04   3.22509732E-05  -2.89882209E-05
              958  -2.68215052E-04  -1.20150013E-04   2.23174691E-04   2.08451529E-04
              959   9.01878811E-05   1.24212034E-04   4.21722070E-05  -9.11758907E-05
              960   2.48082642E-07  -1.75528996E-07   3.60569388E-08  -4.86764478E-08
              961   1.72443877E-04   7.35586000E-05   1.91034313E-04  -4.01906873E-05
              962  -2.40527042E-05  -6.33203308E-05   7.37201117E-05   7.80932533E-05
              963  -3.57289906E-07  -2.75037223E-06   1.51699305E-06   2.14812121E-06
              964   4.02222781E-07  -6.40566100E-07   2.29667691E-07   2.62547331E-07
              965   5.03483352E-05  -1.90006413E-05   2.47659555E-05  -1.10016808E-05
              966   4.97299243E-06   1.21647754E-04   2.92444042E-06  -2.24515115E-05
              967  -3.70105258E-09  -7.33340073E-08   1.66810707E-08   4.50524134E-08
              968   8.94662480E-06  -2.73337355E-06   2.16243529E-06  -3.90983405E-06
              969   1.16909774E-07   1.42088528E-08   1.61387470E-09  -8.33461939E-08
              970   5.77470205E-09  -6.26271612E-09  -1.19674159E-09   1.09669063E-09
              971  -1.84775089E-07  -1.48299693E-08   3.70220121E-08   5.34864952E-08
              972   2.41759008E-05  -1.90694409E-05   1.53459441E-05   2.19283197E-06
              973  -1.57211151E-04  -6.61902886E-05   1.13502465E-04   1.32011526E-04
              974  -6.80133116E-10   1.48670580E-07  -1.08675033E-08  -3.98479614E-08
              975   1.78791115E-08  -7.05989578E-09  -9.12516840E-10  -5.09214448E-09
              976   7.07900181E-05   2.47812044E-04   4.55175723E-05  -9.87095264E-05
              977   1.43102079E-06   8.63122295E-06  -1.38300095E-07  -4.79940763E-06
              978   3.19741069E-08   7.17833615E-08  -5.59736435E-09  -5.71739989E-08
              979   2.34236154E-07   1.51854991E-07  -2.61088839E-09  -2.67578741E-07
              980   1.14769919E-05   2.37514614E-05   1.29529769E-06  -1.87573969E-05
              981   1.48828985E-04   9.35714634E-05   1.02849910E-04  -8.44012320E-05
              982  -2.18949185E-06  -1.22454117E-06   1.02136823E-06   1.82012548E-06
              983  -5.75420881E-06  -8.51791083E-06   5.79693460E-06   8.81990400E-06
              984  -3.30461762E-06  -2.75646670E-07   8.71484758E-07   8.65983679E-07
              985   1.83180691E-06   1.67713904E-06   1.20524405E-07  -2.20400352E-06
              986  -1.44184072E-04  -2.57457350E-06   3.75082527E-05   2.84002745E-05
              987   1.40613858E-08   1.57151767E-08  -3.71781439E-10  -1.65628684E-08
              988   9.51601109E-09   2.52463597E-08   3.57377772E-09  -1.11001599E-08
              989   1.48757954E-05   1.93073429E-04   1.27502026E-05  -3.05219364E-05
              990  -6.66724191E-07  -5.10372615E-08   1.62671412E-07   1.79367561E-07
              991  -4.17824396E-07  -2.05796962E-08   9.21280616E-08   7.83113734E-08
              992  -1.49527594E-04  -3.29700706E-05   6.38860511E-05   8.21556387E-05
              993   5.36543965E-08  -9.12309659E-08   2.22168168E-08   3.27518279E-08
              994  -1.88922201E-07   4.56340513E-06  -3.15974461E-07  -9.33350805E-07
              995   1.65015779E-04   5.97405247E-04   1.70083935E-04  -3.31210031E-05
              996   1.92092441E-04   3.29568749E-04   1.66337777E-04  -1.37718976E-04
              997  -9.03755245E-06  -1.10141059E-06   2.54852353E-06   2.99028898E-06
              998   1.58342809E-05   2.51537072E-04   1.90006176E-05  -1.29975742E-05
              999  -3.44797996E-07  -3.28090437E-07   2.07655347E-07   4.05472463E-07
             1000   5.91959520E-07   3.30176154E-05  -6.74826708E-07  -7.17129205E-06
             1001   1.36473702E-07  -1.96726845E-07   4.12805150E-08   5.47095773E-08
             1002  -2.77152765E-07   7.65211826E-06  -4.71638657E-07  -1.82828387E-06
             1003  -7.69273445E-09   3.31268978E-07  -2.62075392E-08  -1.39019903E-07
             1004  -5.92572000E-08  -3.82087295E-09   4.40271863E-09   1.58947060E-08
             1005   1.96962996E-04   4.59734758E-04   1.77001333E-04  -1.32970963E-04
             1006   1.90634033E-04   2.90365366E-04   1.89121114E-04  -1.41886936E-04
             1007  -8.38772903E-05  -1.20689234E-04   2.18564426E-04   1.52320979E-04
             1008   3.83902261E-05   1.11949237E-04   1.22081710E-05  -5.21192669E-05
             1009   1.64568664E-05   1.02759033E-04   5.42519410E-06  -3.60242047E-05
             1010  -4.21351798E-09  -1.72006374E-08   3.39255873E-10   1.42155656E-08
             1011  -8.88240291E-04  -1.31957340E-05   2.41527378E-04   1.13752583E-04
             1012   8.86583439E-05  -2.98411442E-06   3.93970258E-05  -2.61666028E-05
             1013  -4.26160618E-09  -3.60123416E-08   8.04003797E-09   2.99037950E-08
             1014   1.79202675E-06   7.91462808E-05  -1.73818449E-07  -1.44929591E-05
             1015   4.24865211E-05   1.99670103E-04   2.55043833E-05  -7.35373178E-05
             1016  -9.74210379E-10   2.38599966E-07  -1.15029959E-08  -4.38479653E-08
             1017  -2.92294790E-05  -1.77118261E-06   7.97821667E-06   2.35457651E-06
             1018  -2.25428181E-07   3.11383997E-06  -2.14425313E-07  -3.15068689E-07
             1019   1.01721434E-06  -4.72589500E-06   2.51107508E-06   2.74731133E-06
             1020  -8.74915571E-08  -4.44133832E-08   2.45927883E-08   6.59273169E-08
             1021  -2.24184031E-08  -2.60748068E-09  -3.91995592E-09   6.55677912E-09
             1022  -7.29414262E-09   1.09753451E-07  -8.46893133E-09  -1.34073908E-08
             1023   5.00395181E-05   6.32661686E-05   1.39260264E-05  -5.36466905E-05
             1024   5.38395417E-09   3.78066183E-08   3.82694143E-09  -8.42673931E-09
             1025   1.55425550E-05   1.25978318E-06   3.14933550E-06  -1.03637631E-05
             1026   1.13474616E-08   2.25296515E-09   1.22579236E-09  -3.70699316E-09
             1027   1.89758591E-08   4.25568274E-08  -3.37336004E-09  -3.59273677E-08
             1028   1.73034394E-04   5.70997829E-04   1.71634412E-04  -6.23555097E-05
             1029  -3.96778290E-08  -1.83172801E-07   6.78652299E-08   1.45936582E-07
             1030  -9.24738706E-05  -1.11184204E-06   2.34803738E-05   1.43118559E-05
             1031   3.35092118E-05   3.17191370E-05   7.66967241E-06  -3.52822681E-05
             1032  -2.69335171E-04  -3.89330780E-05   1.03814542E-04   1.17907235E-04
             1033   2.17035208E-08   1.55465202E-07  -1.22807897E-08  -7.77816638E-08
             1034   7.49401181E-07  -1.45400418E-06   6.47232923E-07   7.34220123E-07
             1035   6.55200929E-05   3.26957670E-04   5.11372891E-05  -7.63826683E-05
             1036  -3.30778159E-04  -1.05394338E-05   9.16549252E-05   6.47830166E-05
             1037  -2.15881679E-04  -9.48433953E-05   1.61680946E-04   1.62828292E-04
             1038  -3.03494460E-07  -2.72240652E-09   5.95721552E-08   2.04974029E-08
             1039  -6.76885888E-04  -1.32848418E-05   1.80591902E-04   8.93536053E-05
             1040  -7.24116922E-04  -3.60611957E-05   2.43761155E-04   1.94123160E-04
             1041   8.19300403E-05  -7.49538012E-05   1.10088986E-04   2.74704653E-05
             1042   4.98228246E-07   4.13863660E-07   1.32115763E-09  -5.63941342E-07
             1043   6.24267295E-06  -1.91207005E-06   9.12641440E-07  -2.54500833E-06
             1044   1.10935704E-04   5.13301755E-04   1.12214271E-04  -3.25895744E-05
             1045   2.85136011E-05  -3.59699106E-06   8.99689712E-06  -1.36778235E-05
             1046   2.27973351E-06  -2.27634700E-06   1.01260844E-06   3.90214353E-07
             1047   3.60114022E-10  -8.97829633E-09  -2.48534882E-09   5.06476994E-09
             1048   3.52652023E-06   4.31676926E-05  -5.02834148E-08  -1.58218536E-05
             1049   1.17701187E-04  -1.33502017E-05   2.04960161E-04   1.87309815E-05
             1050   4.22781795E-07  -2.17517879E-08   2.47227909E-08  -2.73471670E-07
             1051  -4.74654044E-05  -2.02630281E-06   1.30565122E-05   1.20320137E-05
             1052   4.94865817E-05  -8.59165084E-05   1.56891198E-04   6.40643339E-05
             1053   1.07616957E-04   3.10301839E-04   7.57975868E-05  -1.24100770E-04
             1054  -4.11785222E-05  -3.18777929E-05   3.13770906E-05   4.20596116E-05
             1055  -1.05759753E-07  -4.84113061E-09   1.48955968E-08   2.65268678E-08
             1056   1.15783107E-04   4.56849841E-04   1.07535641E-04  -9.24867709E-05
             1057   1.73462709E-07   6.45017451E-07  -3.04103231E-08  -4.15590563E-07
             1058  -4.35596667E-06  -2.75095008E-05   1.65755719E-05   1.74753332E-05
             1059   4.82049707E-08   1.84388739E-07  -1.34528610E-08  -1.24097056E-07


