********************************************************************************
Field Output Report, written Thu Oct  6 11:47:16 2016

Source 1
---------

   ODB: /home/lcharleux/Documents/Programmation/Python/Modules/hardness/doc/tutorials/workdir/indentation_2D.odb
   Step: LOADING1
   Frame: Increment     50: Step Time =    1.000

Loc 1 : Nodal values from source 1

Output sorted by column "Node Label".

Field Output reported at nodes for part: I_SAMPLE
   Computation algorithm: EXTRAPOLATE_COMPUTE_AVERAGE
   Averaged at nodes
   Averaging regions: ODB_REGIONS

             Node            S.S11            S.S22            S.S33            S.S12
            Label           @Loc 1           @Loc 1           @Loc 1           @Loc 1
--------------------------------------------------------------------------------------
                1  -2.03485340E-02  -3.03450283E-02  -2.03460865E-02   1.37098381E-04
                2   1.48652383E-04  -9.79968533E-03   2.50026118E-04   9.61720507E-05
                3  -1.18339225E-03  -1.29020691E-03   9.81239020E-04   1.99014973E-03
                4  -7.92451203E-03   2.19765701E-04   1.40172767E-03   2.79936590E-04
                5   3.85449850E-04  -1.78642932E-03   3.81718070E-04   6.18039849E-05
                6  -1.02345645E-03  -4.25997423E-05  -2.70423516E-06   9.15298879E-05
                7  -5.03806746E-07  -1.51426730E-06  -5.00807460E-07   4.71281041E-08
                8   1.42420220E-07  -4.23261852E-08   2.12327507E-08   1.64263128E-08
                9  -2.01096423E-02  -3.00920010E-02  -2.00673398E-02   3.21185071E-05
               10  -1.87555254E-02  -2.87642721E-02  -1.88627411E-02   5.78294566E-04
               11  -1.72603615E-02  -2.72756163E-02  -1.72681622E-02  -1.63439603E-04
               12  -1.57565270E-02  -2.57429574E-02  -1.57850627E-02   4.65447112E-04
               13  -1.41341724E-02  -2.41403393E-02  -1.41290538E-02  -8.30596837E-05
               14  -1.25872474E-02  -2.25866213E-02  -1.26148127E-02   3.26858659E-04
               15  -1.09816352E-02  -2.09833197E-02  -1.09762596E-02   7.27682527E-06
               16  -9.45360586E-03  -1.94588844E-02  -9.47761349E-03   2.17259250E-04
               17  -7.94208609E-03  -1.79381482E-02  -7.93149881E-03   5.84187037E-05
               18  -6.48983754E-03  -1.64908897E-02  -6.49953540E-03   1.62683515E-04
               19  -5.06436126E-03  -1.50586907E-02  -5.05462894E-03   1.00687903E-04
               20  -3.67415044E-03  -1.36758946E-02  -3.68334237E-03   1.42025106E-04
               21  -2.31286045E-03  -1.23092737E-02  -2.30965111E-03   1.23767153E-04
               22  -9.74401715E-04  -1.09842122E-02  -9.98359756E-04   1.25560007E-04
               23   1.69401959E-04  -9.80253797E-03   1.93938613E-04   3.09282099E-04
               24   1.62981378E-04  -9.76480916E-03   1.88203732E-04   6.26702269E-04
               25   1.68131199E-04  -9.65416804E-03   2.61675712E-04   9.27904272E-04
               26   1.79980168E-04  -9.50688124E-03   3.55587661E-04   1.21539854E-03
               27   1.92280306E-04  -9.32383817E-03   4.61726944E-04   1.50632230E-03
               28   2.24490374E-04  -9.09075513E-03   5.78391482E-04   1.80715974E-03
               29   2.55116553E-04  -8.81510694E-03   7.20572250E-04   2.10486725E-03
               30   3.03181558E-04  -8.49756040E-03   8.96998332E-04   2.37898435E-03
               31   3.12790333E-04  -8.13151803E-03   1.12584850E-03   2.65802350E-03
               32   3.62287450E-04  -7.71424035E-03   1.36709458E-03   2.92365439E-03
               33   4.32615838E-04  -7.24462327E-03   1.61048956E-03   3.19613190E-03
               34   4.46615071E-04  -6.75264467E-03   1.89000391E-03   3.45044327E-03
               35   4.94525593E-04  -6.30384963E-03   2.13412638E-03   3.63723678E-03
               36   5.09056030E-04  -5.84968459E-03   2.29974138E-03   3.77225177E-03
               37   4.25069185E-04  -5.41592389E-03   2.42777425E-03   3.88540840E-03
               38   2.19778827E-04  -4.93538752E-03   2.43095518E-03   3.89823830E-03
               39  -5.50323148E-06  -4.38622106E-03   2.32403004E-03   3.81454360E-03
               40  -2.01546922E-04  -3.96864302E-03   2.21504271E-03   3.71514633E-03
               41  -3.60418053E-04  -3.65971564E-03   2.09991680E-03   3.61810206E-03
               42  -5.14613464E-04  -3.33765219E-03   1.98377785E-03   3.50855617E-03
               43  -6.78511336E-04  -3.00903013E-03   1.86422886E-03   3.38307233E-03
               44  -7.85136595E-04  -2.74134753E-03   1.75647344E-03   3.23451497E-03
               45  -8.76124366E-04  -2.49987235E-03   1.65063818E-03   3.07908701E-03
               46  -9.68989276E-04  -2.27513863E-03   1.55248726E-03   2.92419246E-03
               47  -1.02769886E-03  -2.09456403E-03   1.46754761E-03   2.78505543E-03
               48  -1.06755248E-03  -1.92855170E-03   1.38292112E-03   2.64734961E-03
               49  -1.10879296E-03  -1.77067495E-03   1.29539962E-03   2.50471709E-03
               50  -1.13463844E-03  -1.63506728E-03   1.21206918E-03   2.36964016E-03
               51  -1.14764331E-03  -1.51825789E-03   1.13354402E-03   2.24048062E-03
               52  -1.15378317E-03  -1.41171087E-03   1.05798698E-03   2.11219303E-03
               53  -1.40991807E-03  -1.20466668E-03   1.08003605E-03   2.14761030E-03
               54  -1.68832822E-03  -1.06512173E-03   1.18776725E-03   2.25880998E-03
               55  -2.01411196E-03  -8.83467146E-04   1.30444567E-03   2.35411548E-03
               56  -2.36855773E-03  -6.79341669E-04   1.42451574E-03   2.40111747E-03
               57  -2.75774347E-03  -4.43792000E-04   1.54134398E-03   2.40187952E-03
               58  -3.16167949E-03  -2.05414748E-04   1.65361119E-03   2.35011731E-03
               59  -3.55538097E-03   5.68408132E-06   1.76218885E-03   2.22429773E-03
               60  -3.96853033E-03   1.88697857E-04   1.84742943E-03   2.04275455E-03
               61  -4.37042769E-03   3.04042740E-04   1.91355206E-03   1.83496764E-03
               62  -4.77977330E-03   3.53680109E-04   1.97238103E-03   1.60225539E-03
               63  -5.20969275E-03   2.94169615E-04   1.97778060E-03   1.37409964E-03
               64  -5.71912527E-03   1.99451577E-04   1.89961412E-03   1.16601121E-03
               65  -6.32765610E-03   9.89108812E-05   1.76646747E-03   9.42440354E-04
               66  -7.16033764E-03  -8.43101589E-08   1.54626626E-03   5.72032586E-04
               67  -8.71370174E-03   3.94060742E-04   1.63534679E-03   1.39513460E-04
               68  -9.14715976E-03   4.98650130E-04   1.20042171E-03  -1.65771926E-04
               69  -9.61912051E-03   4.85464407E-04   3.05502501E-04  -2.98508647E-04
               70  -1.00433417E-02   4.26325219E-04  -5.65372640E-04  -3.93414550E-04
               71  -1.03945667E-02   3.80433892E-04  -1.39814604E-03  -4.62021824E-04
               72  -1.06849512E-02   3.28642433E-04  -2.16809777E-03  -5.20069734E-04
               73  -1.09171569E-02   2.61975831E-04  -2.80894479E-03  -5.25999174E-04
               74  -1.10876281E-02   1.85815908E-04  -3.24383285E-03  -4.62474447E-04
               75  -1.11840498E-02   1.22026031E-04  -3.43116326E-03  -3.35729652E-04
               76  -1.11957081E-02   8.40860448E-05  -3.36230593E-03  -1.90907609E-04
               77  -1.11353053E-02   5.19677633E-05  -3.03949951E-03  -6.54814139E-05
               78  -1.10539291E-02  -4.62486678E-05  -2.48915795E-03  -5.54010476E-05
               79  -1.11382268E-02  -6.42068102E-04  -1.69242790E-03   2.77147570E-04
               80  -1.15317898E-02  -6.06321613E-04  -2.25750823E-03  -1.79749588E-03
               81  -1.33499037E-02  -5.40816924E-03  -8.17163754E-03   1.74345239E-03
               82  -1.46411108E-02  -1.62927322E-02  -1.29837263E-02   5.01361443E-03
               83  -1.59293413E-02  -2.05491986E-02  -1.28669795E-02   4.25134180E-03
               84  -1.64424293E-02  -2.08306201E-02  -1.29066147E-02   4.22416674E-03
               85  -1.66360438E-02  -2.15081535E-02  -1.43586835E-02   4.47947439E-03
               86  -1.67150926E-02  -2.36045718E-02  -1.57119632E-02   3.80740804E-03
               87  -1.77225042E-02  -2.44943723E-02  -1.62036326E-02   3.71283456E-03
               88  -1.78911313E-02  -2.56440938E-02  -1.73843503E-02   3.43343103E-03
               89  -1.86791252E-02  -2.68545412E-02  -1.79853365E-02   3.00297467E-03
               90  -1.89968571E-02  -2.74580102E-02  -1.85950324E-02   2.87779421E-03
               91  -1.93981938E-02  -2.85120886E-02  -1.92536786E-02   2.26472644E-03
               92  -1.96489990E-02  -2.88042761E-02  -1.94746219E-02   2.20579514E-03
               93  -1.96481757E-02  -2.95289457E-02  -2.00843960E-02   1.44505384E-03
               94  -1.99931338E-02  -2.98877768E-02  -2.01743357E-02   1.14912214E-03
               95  -1.99690592E-02  -3.01767979E-02  -2.04806961E-02   4.85647965E-04
               96  -2.05567107E-02  -3.05468701E-02  -2.05292366E-02   9.43603081E-05
               97   1.34274317E-03  -8.65063909E-03   1.34830060E-03   1.81789204E-04
               98   2.23416509E-03  -7.44740199E-03   2.27932399E-03  -4.01068464E-05
               99   2.11705361E-03  -6.57042861E-03   2.31965957E-03   6.91146925E-05
              100   1.65708642E-03  -5.58762345E-03   1.89031241E-03   5.74610967E-05
              101   1.30130746E-03  -4.59427200E-03   1.52037735E-03   5.81819186E-05
              102   1.08073140E-03  -3.78502859E-03   1.12236547E-03   1.76247719E-04
              103   8.57721083E-04  -3.01385811E-03   7.84892123E-04   7.18594674E-05
              104   6.44422951E-04  -2.49370490E-03   6.02986256E-04   5.49008364E-05
              105   4.86595207E-04  -2.08939752E-03   4.76114888E-04   6.55689219E-05
              106   3.61216080E-04  -1.76083704E-03   3.81156016E-04   1.77012145E-04
              107   3.09889321E-04  -1.70338887E-03   3.78297816E-04   3.53473442E-04
              108   2.22497358E-04  -1.61213905E-03   3.67179571E-04   5.15145482E-04
              109   9.17142170E-05  -1.51967432E-03   3.73600255E-04   6.82232552E-04
              110  -4.17047922E-05  -1.33080804E-03   3.36547237E-04   7.45906204E-04
              111  -1.79028284E-04  -1.16465532E-03   3.30543000E-04   8.09069956E-04
              112  -3.43411724E-04  -1.01387477E-03   3.25300731E-04   8.74943100E-04
              113  -4.63579636E-04  -8.45673145E-04   2.86426919E-04   8.42444599E-04
              114  -5.96197147E-04  -6.99568074E-04   2.73215061E-04   8.35061364E-04
              115  -7.27898965E-04  -5.60154906E-04   2.48243654E-04   8.03866773E-04
              116  -8.44777504E-04  -4.41306795E-04   2.15821929E-04   7.45354337E-04
              117  -9.58084944E-04  -3.19230865E-04   1.81669035E-04   6.69378962E-04
              118  -1.05119753E-03  -2.08697384E-04   1.41534169E-04   5.71103534E-04
              119  -1.11219799E-03  -1.15234216E-04   9.56226286E-05   4.07128653E-04
              120  -1.15754467E-03  -3.33466705E-05   4.96363282E-05   2.06921541E-04
              121  -1.36229605E-03  -1.77836791E-05   2.96179642E-05   5.80086271E-05
              122  -1.73094578E-03  -4.48110804E-05   7.44428253E-05   1.14852228E-04
              123  -2.23013200E-03  -1.16560714E-05   1.38275602E-04   4.45769729E-05
              124  -2.76111974E-03  -1.19365486E-05   2.29022815E-04   1.59776158E-04
              125  -3.39348498E-03  -1.12083526E-05   3.48203030E-04   1.58269861E-04
              126  -4.17536870E-03  -1.38443502E-05   4.91786574E-04   1.90851904E-04
              127  -5.06004505E-03   1.10165347E-05   6.69732224E-04   2.03422343E-04
              128  -5.98069094E-03   6.58902281E-05   8.90650554E-04   2.69358512E-04
              129  -6.95040962E-03   1.25461389E-04   1.14001171E-03   2.93258054E-04
              130   2.86239025E-04  -1.50179048E-03   3.01915687E-04   4.15149116E-05
              131   1.91640356E-04  -1.20136805E-03   2.18896283E-04   2.78622556E-05
              132   1.32440939E-04  -9.43583203E-04   1.52949913E-04   5.73351936E-05
              133   1.09413115E-04  -7.65972887E-04   1.10534544E-04   2.64792870E-05
              134   5.94576704E-05  -5.96359721E-04   7.76671368E-05  -6.21887284E-06
              135   3.24365465E-05  -4.68896760E-04   5.62255373E-05   1.00026782E-05
              136   2.48488723E-05  -3.61843733E-04   4.07654297E-05   2.16303506E-05
              137   2.16811313E-05  -2.71604367E-04   2.82996989E-05   1.19665619E-05
              138   1.25093748E-05  -2.03432690E-04   1.84080891E-05   9.66821972E-06
              139   8.86783255E-06  -1.48563500E-04   1.34043548E-05   9.82452730E-06
              140   8.37334846E-06  -1.09610024E-04   1.07436881E-05   6.24365566E-06
              141   5.64617494E-06  -8.17785985E-05   7.79180209E-06   5.05032676E-06
              142   4.80400377E-06  -5.93719051E-05   5.74298838E-06   4.64378263E-06
              143   3.95395500E-06  -4.32981469E-05   4.21101231E-06   1.93108781E-06
              144   1.41192004E-06  -3.07377850E-05   2.78124116E-06   2.82718304E-07
              145   3.74894569E-07  -2.14116044E-05   1.89689740E-06   1.25270810E-06
              146   5.32632043E-07  -1.52762368E-05   1.32480727E-06   1.68717168E-06
              147   8.39487143E-07  -9.93649610E-06   6.63037497E-07   1.01361707E-06
              148   6.04303295E-07  -6.73426075E-06   2.12648800E-07   1.58052472E-07
              149   2.13125389E-07  -4.76643208E-06   1.41551396E-07   3.51452314E-07
              150  -4.96914474E-08  -3.46871593E-06   3.65357735E-08   6.47162608E-08
              151  -2.44225532E-07  -2.50883545E-06  -1.41872889E-07   1.49516978E-07
              152  -4.14280237E-07  -1.84084877E-06  -3.78670592E-07   1.33280878E-07
              153  -5.72455860E-07  -1.40347254E-06  -4.92818913E-07   1.66474535E-07
              154  -6.09241965E-07  -1.23636289E-06  -4.63842213E-07   2.97623728E-07
              155  -6.67124368E-07  -9.79294782E-07  -4.20071387E-07   3.44961421E-07
              156  -6.97353300E-07  -6.55419228E-07  -3.28785063E-07   3.13991166E-07
              157  -5.79655307E-07  -3.81982460E-07  -2.47823777E-07   1.80579946E-07
              158  -3.83650956E-07  -1.71447908E-07  -1.39780440E-07   9.13132965E-08
              159  -7.77109079E-08  -4.14626911E-08  -3.02948244E-08   6.51488730E-09
              160   2.24098130E-07  -8.95132928E-08   1.33731426E-08  -2.04272261E-08
              161   3.50402217E-07  -1.30886235E-07  -2.01209485E-08   6.38013375E-09
              162   4.86144017E-07  -1.58373453E-07  -9.84906166E-08   2.33919693E-08
              163   6.06162075E-07  -2.00940477E-07  -2.48723609E-07  -1.64272009E-08
              164   7.47440140E-07  -2.52627046E-07  -4.91841149E-07  -1.08817325E-07
              165   8.30769181E-07  -1.65195104E-07  -8.16637566E-07   1.43569920E-07
              166   9.23032474E-07  -2.98240025E-07  -1.20657523E-06   6.95971551E-07
              167   9.91624461E-07  -6.28485907E-07  -1.73992714E-06   1.08758638E-06
              168   1.03365323E-06  -9.11766961E-07  -2.54064025E-06   1.55901648E-06
              169   7.77082334E-07  -1.20017705E-06  -3.84650411E-06   2.45630758E-06
              170  -1.17037075E-07  -1.41870430E-06  -5.49751212E-06   3.56401370E-06
              171  -1.06323955E-06  -2.73464457E-06  -7.39914685E-06   4.33966989E-06
              172  -4.30391265E-06  -4.14610531E-06  -1.01515816E-05   6.28820044E-06
              173  -8.17788441E-06  -6.81979145E-06  -1.43101624E-05   9.62238028E-06
              174  -2.11929055E-05  -2.50036419E-06  -1.91090330E-05   1.21390094E-05
              175  -2.57439788E-05  -1.33471121E-05  -2.41306061E-05   1.39810772E-05
              176  -5.69710573E-05  -1.20729492E-05  -3.18039965E-05  -1.93925189E-07
              177  -1.00056044E-04  -1.26357700E-05  -3.71995848E-05   8.18462559E-06
              178  -1.54708745E-04  -2.24360956E-05  -3.98250850E-05   1.48398913E-05
              179  -2.48312426E-04  -2.51699585E-05  -4.33215537E-05   1.06439893E-05
              180  -3.76615120E-04  -2.41040416E-05  -4.37623276E-05   1.02433660E-05
              181  -5.45369287E-04  -3.09796524E-05  -4.06598301E-05   2.46547024E-05
              182  -7.79602327E-04  -2.46435793E-05  -2.58525852E-05   4.21216755E-05
              183  -1.99309103E-02  -2.99425144E-02  -2.00509075E-02   4.46105492E-04
              184  -1.97795443E-02  -2.96379849E-02  -1.97579190E-02   9.12833028E-04
              185  -1.95751451E-02  -2.93291062E-02  -1.95790846E-02   1.26886566E-03
              186  -1.93562675E-02  -2.88742147E-02  -1.93496346E-02   1.75623572E-03
              187  -1.92762446E-02  -2.84063332E-02  -1.89814158E-02   2.15373095E-03
              188  -1.89750232E-02  -2.78228037E-02  -1.87551025E-02   2.54768273E-03
              189  -1.87948029E-02  -2.70569064E-02  -1.81883760E-02   2.95925559E-03
              190  -1.83951668E-02  -2.62407754E-02  -1.77181810E-02   3.28138797E-03
              191  -1.79626141E-02  -2.51710042E-02  -1.69923045E-02   3.63475527E-03
              192  -1.75889768E-02  -2.41339877E-02  -1.62001643E-02   3.91280325E-03
              193  -1.68557204E-02  -2.30545048E-02  -1.55649539E-02   4.12588427E-03
              194  -1.64541230E-02  -2.18472965E-02  -1.43907806E-02   4.27702675E-03
              195  -1.57029480E-02  -2.10215040E-02  -1.37203988E-02   4.31685429E-03
              196  -1.49491187E-02  -1.95682812E-02  -1.37938634E-02   4.79765702E-03
              197  -1.39969792E-02  -1.60641000E-02  -1.27949193E-02   5.51935006E-03
              198  -1.47776026E-02  -8.01543612E-03  -9.82053485E-03   4.49370267E-03
              199  -1.29663013E-02  -3.11181671E-03  -6.69661677E-03   2.58356775E-03
              200  -1.21212043E-02  -8.13330873E-04  -4.62844502E-03   6.21012528E-04
              201  -1.15777971E-02  -3.44948232E-04  -3.73238395E-03  -5.00965252E-05
              202  -1.12876091E-02  -1.49676125E-04  -3.38561507E-03  -3.27237474E-04
              203  -1.11332517E-02  -5.89421143E-05  -3.13670980E-03  -3.30266193E-04
              204  -1.10033341E-02   3.87570162E-06  -2.79150601E-03  -2.16750283E-04
              205  -1.08415186E-02   4.78899929E-05  -2.27258727E-03  -7.56258378E-05
              206  -1.06155770E-02   7.37777664E-05  -1.59576838E-03   4.58736467E-05
              207  -1.03139533E-02   8.89876974E-05  -8.19102686E-04   1.37764233E-04
              208  -9.93582699E-03   1.07580410E-04   2.45591946E-06   2.17796609E-04
              209  -9.48085077E-03   1.48264604E-04   8.37141473E-04   3.23470711E-04
              210  -9.00632050E-03   1.69046820E-04   1.63557520E-03   4.72029729E-04
              211  -8.44325311E-03   1.47929226E-04   2.03388231E-03   5.54855797E-04
              212  -7.76630174E-03   5.96138379E-05   1.83839421E-03   5.62795845E-04
              213  -1.87595971E-02  -2.86784936E-02  -1.87249482E-02   6.75353862E-04
              214  -1.87009983E-02  -2.84618884E-02  -1.85713843E-02   1.03769626E-03
              215  -1.85597669E-02  -2.80879922E-02  -1.83682051E-02   1.55802199E-03
              216  -1.84854828E-02  -2.76999474E-02  -1.81021634E-02   1.95463886E-03
              217  -1.82976816E-02  -2.72232853E-02  -1.79590993E-02   2.38698814E-03
              218  -1.82002746E-02  -2.66089235E-02  -1.76292732E-02   2.84400280E-03
              219  -1.80320404E-02  -2.59587560E-02  -1.73393358E-02   3.21958680E-03
              220  -1.78376641E-02  -2.50678621E-02  -1.69049818E-02   3.65656102E-03
              221  -1.76854432E-02  -2.41347775E-02  -1.63423587E-02   3.99783254E-03
              222  -1.73611604E-02  -2.31492575E-02  -1.58560742E-02   4.29656729E-03
              223  -1.71801429E-02  -2.19541155E-02  -1.51565596E-02   4.59913863E-03
              224  -1.68715715E-02  -2.09154785E-02  -1.45209711E-02   4.77949902E-03
              225  -1.65313482E-02  -1.96822546E-02  -1.40945110E-02   5.04095946E-03
              226  -1.62009522E-02  -1.76497884E-02  -1.35360276E-02   5.37124788E-03
              227  -1.62358116E-02  -1.43673215E-02  -1.23546375E-02   5.45496633E-03
              228  -1.56227034E-02  -1.18109565E-02  -1.09785460E-02   5.25897695E-03
              229  -1.50617417E-02  -8.27760156E-03  -9.62428562E-03   4.34236042E-03
              230  -1.41391708E-02  -4.43142187E-03  -7.67361745E-03   2.87255482E-03
              231  -1.31340614E-02  -2.03113025E-03  -5.81324007E-03   1.31706404E-03
              232  -1.21890754E-02  -8.44622788E-04  -4.47776727E-03   3.95078736E-04
              233  -1.14339665E-02  -2.19363894E-04  -3.32551240E-03  -8.63236637E-05
              234  -1.08489404E-02   8.60517903E-05  -2.18787463E-03  -2.29761950E-04
              235  -1.03562083E-02   2.09865539E-04  -1.07207673E-03  -1.67069637E-04
              236  -9.88736656E-03   2.49863224E-04  -4.20113283E-05  -1.10092078E-05
              237  -9.40273330E-03   2.86968541E-04   8.73570039E-04   1.77736903E-04
              238  -8.88424367E-03   3.66731983E-04   1.69457518E-03   3.89397930E-04
              239  -8.36547837E-03   4.78312082E-04   2.42117327E-03   6.21164625E-04
              240  -7.78967608E-03   4.94268956E-04   2.66830996E-03   7.74074753E-04
              241  -7.23675452E-03   3.81164544E-04   2.39076279E-03   8.53119302E-04
              242  -6.80354144E-03   2.26271644E-04   2.06751516E-03   8.94336961E-04
              243  -1.72780044E-02  -2.72297189E-02  -1.72843728E-02   4.85648372E-04
              244  -1.72706954E-02  -2.70389244E-02  -1.71857607E-02   1.12308643E-03
              245  -1.72935333E-02  -2.67699789E-02  -1.70080978E-02   1.56669237E-03
              246  -1.72291938E-02  -2.63805166E-02  -1.68722626E-02   2.06148648E-03
              247  -1.71892177E-02  -2.58941036E-02  -1.66193619E-02   2.51796679E-03
              248  -1.71137489E-02  -2.53449194E-02  -1.64035447E-02   2.93350313E-03
              249  -1.70256123E-02  -2.46356465E-02  -1.61112696E-02   3.38516524E-03
              250  -1.69616509E-02  -2.38758978E-02  -1.57499555E-02   3.75822978E-03
              251  -1.68567635E-02  -2.30057277E-02  -1.53869474E-02   4.12327331E-03
              252  -1.67536158E-02  -2.20747069E-02  -1.49394618E-02   4.42819437E-03
              253  -1.66450776E-02  -2.10803803E-02  -1.44633334E-02   4.68622753E-03
              254  -1.64899155E-02  -2.00241208E-02  -1.39992721E-02   4.91657015E-03
              255  -1.62821002E-02  -1.88198164E-02  -1.35391559E-02   5.13279019E-03
              256  -1.60676669E-02  -1.72094572E-02  -1.29686575E-02   5.34362299E-03
              257  -1.58831924E-02  -1.51035227E-02  -1.21567324E-02   5.42970933E-03
              258  -1.59586947E-02  -1.21623818E-02  -1.10389162E-02   5.13184350E-03
              259  -1.56943072E-02  -9.77665931E-03  -9.85926483E-03   4.71860822E-03
              260  -1.50779877E-02  -7.45678553E-03  -8.75402521E-03   4.04099748E-03
              261  -1.41349938E-02  -4.67794947E-03  -7.30141345E-03   3.06004286E-03
              262  -1.30961910E-02  -2.51171901E-03  -5.54382754E-03   1.96438562E-03
              263  -1.20269321E-02  -1.06982270E-03  -3.89575050E-03   1.17159542E-03
              264  -1.10412855E-02  -1.61814794E-04  -2.27920059E-03   6.69322675E-04
              265  -1.01725236E-02   3.25912028E-04  -7.26508559E-04   4.31804481E-04
              266  -9.40384064E-03   5.53002872E-04   6.41487306E-04   4.05565079E-04
              267  -8.70752148E-03   6.92022906E-04   1.75499555E-03   5.22480172E-04
              268  -8.06115661E-03   8.71570373E-04   2.62532802E-03   7.26638304E-04
              269  -7.49870064E-03   1.00605248E-03   3.08230706E-03   9.13037802E-04
              270  -6.93061110E-03   8.49427539E-04   2.89835967E-03   1.03730406E-03
              271  -6.49126805E-03   5.78094798E-04   2.52007553E-03   1.10846560E-03
              272  -6.09040586E-03   3.61981685E-04   2.19538808E-03   1.14786893E-03
              273  -1.57421641E-02  -2.56748609E-02  -1.57155804E-02   6.32632175E-04
              274  -1.57602802E-02  -2.55410746E-02  -1.56436022E-02   1.01295928E-03
              275  -1.57532059E-02  -2.52894126E-02  -1.55712860E-02   1.55370089E-03
              276  -1.57764591E-02  -2.49450356E-02  -1.53906476E-02   2.02355115E-03
              277  -1.57725122E-02  -2.45066509E-02  -1.52190113E-02   2.48105428E-03
              278  -1.57574192E-02  -2.39405949E-02  -1.49666872E-02   2.94366898E-03
              279  -1.57407913E-02  -2.33168080E-02  -1.46769360E-02   3.33631854E-03
              280  -1.57093629E-02  -2.25785654E-02  -1.43659543E-02   3.73294624E-03
              281  -1.56748388E-02  -2.18008664E-02  -1.40106054E-02   4.06436389E-03
              282  -1.56431086E-02  -2.09351089E-02  -1.36361420E-02   4.37185913E-03
              283  -1.55898463E-02  -2.00177636E-02  -1.32395662E-02   4.63710818E-03
              284  -1.55091370E-02  -1.90206468E-02  -1.28458152E-02   4.87126317E-03
              285  -1.54078007E-02  -1.77912693E-02  -1.24085918E-02   5.10431780E-03
              286  -1.53287137E-02  -1.62506923E-02  -1.18360892E-02   5.28363744E-03
              287  -1.52581418E-02  -1.44167049E-02  -1.11025264E-02   5.34307398E-03
              288  -1.49072204E-02  -1.28116477E-02  -1.03004519E-02   5.30592818E-03
              289  -1.46360667E-02  -1.07408622E-02  -9.28991660E-03   5.05204219E-03
              290  -1.43027026E-02  -8.62618163E-03  -8.17131624E-03   4.67359088E-03
              291  -1.38350753E-02  -6.54581329E-03  -7.09795300E-03   4.09117294E-03
              292  -1.30183268E-02  -4.28709015E-03  -5.79415867E-03   3.39172618E-03
              293  -1.20812766E-02  -2.40772008E-03  -4.18080995E-03   2.62186024E-03
              294  -1.10820364E-02  -9.95313516E-04  -2.54192459E-03   1.99488015E-03
              295  -1.00999828E-02  -1.05953586E-05  -9.23801912E-04   1.54688268E-03
              296  -9.17911343E-03   6.10870251E-04   5.77704166E-04   1.29192881E-03
              297  -8.34195875E-03   1.01379957E-03   1.84716063E-03   1.20222697E-03
              298  -7.60120898E-03   1.34711317E-03   2.83752871E-03   1.23083382E-03
              299  -7.00175390E-03   1.42190512E-03   3.23106395E-03   1.30315789E-03
              300  -6.39800355E-03   1.09107455E-03   2.94536189E-03   1.35579170E-03
              301  -5.92663977E-03   7.42251344E-04   2.57632462E-03   1.38472754E-03
              302  -5.51771931E-03   4.76684858E-04   2.26145005E-03   1.39433844E-03
              303  -1.41556803E-02  -2.41134502E-02  -1.41485818E-02   4.48126608E-04
              304  -1.41589940E-02  -2.39729509E-02  -1.40977195E-02   1.01465592E-03
              305  -1.41794467E-02  -2.37522293E-02  -1.39769530E-02   1.45860459E-03
              306  -1.41844982E-02  -2.34378539E-02  -1.38616329E-02   1.93306385E-03
              307  -1.41974976E-02  -2.30205432E-02  -1.36620905E-02   2.39336141E-03
              308  -1.42049436E-02  -2.25344915E-02  -1.34372516E-02   2.80413684E-03
              309  -1.42087322E-02  -2.19384693E-02  -1.31637221E-02   3.21968924E-03
              310  -1.42004751E-02  -2.13007107E-02  -1.28520261E-02   3.56875500E-03
              311  -1.41876712E-02  -2.05723308E-02  -1.25157684E-02   3.90551588E-03
              312  -1.41569935E-02  -1.97961144E-02  -1.21504245E-02   4.19878680E-03
              313  -1.41090080E-02  -1.89464428E-02  -1.17784524E-02   4.46682237E-03
              314  -1.40379854E-02  -1.79701187E-02  -1.13769043E-02   4.72558429E-03
              315  -1.39424969E-02  -1.68666746E-02  -1.09202471E-02   4.94923349E-03
              316  -1.38195250E-02  -1.55775677E-02  -1.03742359E-02   5.13205072E-03
              317  -1.36564244E-02  -1.41130667E-02  -9.71090887E-03   5.24411071E-03
              318  -1.35786571E-02  -1.23136928E-02  -8.89871083E-03   5.23760915E-03
              319  -1.33160492E-02  -1.06526613E-02  -8.05962831E-03   5.15195169E-03
              320  -1.29480688E-02  -9.00976546E-03  -7.12451851E-03   4.94794268E-03
              321  -1.25201605E-02  -7.25492463E-03  -6.13467954E-03   4.66737617E-03
              322  -1.20479763E-02  -5.41065494E-03  -5.09962020E-03   4.22661845E-03
              323  -1.13535449E-02  -3.53861647E-03  -3.88226146E-03   3.71133885E-03
              324  -1.05556929E-02  -1.94249791E-03  -2.46581552E-03   3.16002080E-03
              325  -9.69875138E-03  -6.65848202E-04  -1.02223339E-03   2.67930375E-03
              326  -8.83812550E-03   2.95357488E-04   3.79925274E-04   2.30549905E-03
              327  -8.01608060E-03   9.87514621E-04   1.66176609E-03   2.04818649E-03
              328  -7.25244451E-03   1.51030160E-03   2.75574159E-03   1.90591696E-03
              329  -6.62293565E-03   1.61052519E-03   3.20747192E-03   1.83681690E-03
              330  -5.98108582E-03   1.21374626E-03   2.91565480E-03   1.77348824E-03
              331  -5.49074821E-03   8.35192157E-04   2.56412174E-03   1.72772084E-03
              332  -5.07094245E-03   5.39798872E-04   2.26335879E-03   1.68193760E-03
              333  -1.25782872E-02  -2.25261264E-02  -1.25566004E-02   5.45924006E-04
              334  -1.25782266E-02  -2.24045590E-02  -1.24909403E-02   9.20821447E-04
              335  -1.25742145E-02  -2.21943147E-02  -1.24131106E-02   1.39508001E-03
              336  -1.25826336E-02  -2.19003726E-02  -1.22588584E-02   1.83354458E-03
              337  -1.25837047E-02  -2.15366762E-02  -1.20938411E-02   2.24920921E-03
              338  -1.25905024E-02  -2.10784022E-02  -1.18705612E-02   2.66766595E-03
              339  -1.25867240E-02  -2.05731895E-02  -1.16198687E-02   3.03063542E-03
              340  -1.25818811E-02  -1.99768506E-02  -1.13351615E-02   3.39286309E-03
              341  -1.25610847E-02  -1.93302687E-02  -1.10161249E-02   3.71237146E-03
              342  -1.25244949E-02  -1.86068006E-02  -1.06797609E-02   4.01452463E-03
              343  -1.24672782E-02  -1.77907795E-02  -1.03095314E-02   4.30176221E-03
              344  -1.23871956E-02  -1.68805066E-02  -9.90417320E-03   4.56310343E-03
              345  -1.22957230E-02  -1.58180743E-02  -9.43876989E-03   4.80809947E-03
              346  -1.21911699E-02  -1.46199781E-02  -8.89973622E-03   5.01002278E-03
              347  -1.20675471E-02  -1.32994214E-02  -8.28071870E-03   5.14866691E-03
              348  -1.18496418E-02  -1.19648138E-02  -7.60458410E-03   5.21668885E-03
              349  -1.16477534E-02  -1.04615446E-02  -6.81236945E-03   5.19323349E-03
              350  -1.13950819E-02  -8.89405608E-03  -5.97730326E-03   5.10208728E-03
              351  -1.10526895E-02  -7.38003617E-03  -5.09648351E-03   4.93025128E-03
              352  -1.06397010E-02  -5.81134669E-03  -4.17314610E-03   4.69608884E-03
              353  -1.01755848E-02  -4.19889251E-03  -3.17359669E-03   4.35918011E-03
              354  -9.58534796E-03  -2.64241570E-03  -2.04605469E-03   3.96603998E-03
              355  -8.92344676E-03  -1.29316794E-03  -8.15731124E-04   3.55079840E-03
              356  -8.21348280E-03  -1.75871217E-04   4.19131335E-04   3.17497971E-03
              357  -7.49602122E-03   7.10700173E-04   1.60440651E-03   2.86228280E-03
              358  -6.79076975E-03   1.38749706E-03   2.70428602E-03   2.62460764E-03
              359  -6.19352469E-03   1.54340011E-03   3.14369448E-03   2.43794359E-03
              360  -5.56392130E-03   1.15225313E-03   2.81641074E-03   2.24255514E-03
              361  -5.09272330E-03   8.02668277E-04   2.49070418E-03   2.09211092E-03
              362  -4.70258761E-03   5.31312719E-04   2.20852601E-03   1.97416847E-03
              363  -1.09904744E-02  -2.09572706E-02  -1.09853633E-02   4.22437181E-04
              364  -1.09923631E-02  -2.08396763E-02  -1.09308595E-02   8.96713114E-04
              365  -1.09962747E-02  -2.06495523E-02  -1.08227814E-02   1.30603765E-03
              366  -1.09915165E-02  -2.03893036E-02  -1.07068261E-02   1.72132207E-03
              367  -1.09939184E-02  -2.00483315E-02  -1.05298506E-02   2.13064416E-03
              368  -1.09847719E-02  -1.96559466E-02  -1.03373192E-02   2.50052847E-03
              369  -1.09774247E-02  -1.91786606E-02  -1.01044383E-02   2.87600630E-03
              370  -1.09560490E-02  -1.86514799E-02  -9.84200835E-03   3.21264565E-03
              371  -1.09246708E-02  -1.80459861E-02  -9.55653004E-03   3.54222720E-03
              372  -1.08785518E-02  -1.73634365E-02  -9.23352316E-03   3.85421328E-03
              373  -1.08138584E-02  -1.65999960E-02  -8.88032839E-03   4.14582202E-03
              374  -1.07368873E-02  -1.57256331E-02  -8.47752206E-03   4.42424975E-03
              375  -1.06403753E-02  -1.47590274E-02  -8.02242663E-03   4.66931611E-03
              376  -1.05261486E-02  -1.36855673E-02  -7.50527950E-03   4.87713935E-03
              377  -1.03916116E-02  -1.25127025E-02  -6.92574726E-03   5.03915083E-03
              378  -1.02530653E-02  -1.12309009E-02  -6.27609016E-03   5.14315208E-03
              379  -1.00539373E-02  -9.93064791E-03  -5.59191406E-03   5.18811028E-03
              380  -9.80809331E-03  -8.61002505E-03  -4.84753307E-03   5.16232196E-03
              381  -9.53719206E-03  -7.22129829E-03  -4.06056317E-03   5.08016674E-03
              382  -9.21469647E-03  -5.83546422E-03  -3.22828721E-03   4.93383314E-03
              383  -8.83762818E-03  -4.42830240E-03  -2.34332890E-03   4.72841319E-03
              384  -8.40546098E-03  -3.03785573E-03  -1.38486829E-03   4.45686933E-03
              385  -7.89426453E-03  -1.73972256E-03  -3.48312693E-04   4.14794264E-03
              386  -7.33051030E-03  -6.01338688E-04   7.37088034E-04   3.82641470E-03
              387  -6.72157574E-03   3.76966025E-04   1.80609757E-03   3.53280967E-03
              388  -6.16448605E-03   1.13405334E-03   2.75697815E-03   3.25894961E-03
              389  -5.57078654E-03   1.21423567E-03   2.99715181E-03   2.95801857E-03
              390  -5.06039662E-03   8.92443350E-04   2.66438653E-03   2.66394112E-03
              391  -4.64080600E-03   6.11946743E-04   2.37180432E-03   2.42538052E-03
              392  -4.28404473E-03   3.80901212E-04   2.11533997E-03   2.22988124E-03
              393  -9.45309736E-03  -1.94117464E-02  -9.43159778E-03   4.62281518E-04
              394  -9.44873877E-03  -1.93090402E-02  -9.37540457E-03   8.22931586E-04
              395  -9.44243930E-03  -1.91384070E-02  -9.30011366E-03   1.23306655E-03
              396  -9.44207422E-03  -1.88980754E-02  -9.16915014E-03   1.62661145E-03
              397  -9.43038333E-03  -1.86024141E-02  -9.02879331E-03   2.00005015E-03
              398  -9.42165125E-03  -1.82294920E-02  -8.84228759E-03   2.37897737E-03
              399  -9.39943455E-03  -1.78056173E-02  -8.63301009E-03   2.72577046E-03
              400  -9.37127229E-03  -1.73050929E-02  -8.39504693E-03   3.07294168E-03
              401  -9.33106616E-03  -1.67378709E-02  -8.12074076E-03   3.40085104E-03
              402  -9.27673001E-03  -1.60964616E-02  -7.81862438E-03   3.71436612E-03
              403  -9.21323523E-03  -1.53657766E-02  -7.47137098E-03   4.01585922E-03
              404  -9.13435780E-03  -1.45571725E-02  -7.08341319E-03   4.29168344E-03
              405  -9.04532522E-03  -1.36541938E-02  -6.64533116E-03   4.54365462E-03
              406  -8.94282945E-03  -1.26695875E-02  -6.15747087E-03   4.76088468E-03
              407  -8.82104039E-03  -1.16150584E-02  -5.61919576E-03   4.93395608E-03
              408  -8.67053308E-03  -1.05068702E-02  -5.03626466E-03   5.06034493E-03
              409  -8.50536954E-03  -9.33331624E-03  -4.39712917E-03   5.13435248E-03
              410  -8.31331220E-03  -8.11438542E-03  -3.72149399E-03   5.16033638E-03
              411  -8.07534717E-03  -6.89431652E-03  -3.00667947E-03   5.13112498E-03
              412  -7.80522777E-03  -5.64565603E-03  -2.25282670E-03   5.05311834E-03
              413  -7.49541866E-03  -4.39929916E-03  -1.45293295E-03   4.92291246E-03
              414  -7.14102481E-03  -3.15691181E-03  -6.02854881E-04   4.74392809E-03
              415  -6.74050953E-03  -1.96238351E-03   3.01880675E-04   4.52028913E-03
              416  -6.28405251E-03  -8.61994340E-04   1.24019396E-03   4.27582674E-03
              417  -5.79589559E-03   1.11840069E-04   2.20513414E-03   4.01731022E-03
              418  -5.36706019E-03   7.36367656E-04   2.84235715E-03   3.71954544E-03
              419  -4.84261010E-03   7.07836356E-04   2.77411565E-03   3.33115715E-03
              420  -4.46170382E-03   4.89171594E-04   2.48020608E-03   2.97166011E-03
              421  -4.12623771E-03   3.02952772E-04   2.22310703E-03   2.68318737E-03
              422  -3.82839539E-03   1.39381198E-04   1.99617189E-03   2.44797743E-03
              423  -7.94309564E-03  -1.79131273E-02  -7.93273561E-03   3.91098729E-04
              424  -7.94114079E-03  -1.78181212E-02  -7.88504817E-03   7.90600141E-04
              425  -7.93822296E-03  -1.76619273E-02  -7.79855158E-03   1.16453879E-03
              426  -7.92595465E-03  -1.74488090E-02  -7.70116411E-03   1.53771893E-03
              427  -7.91652966E-03  -1.71668269E-02  -7.55640864E-03   1.91181339E-03
              428  -7.89458212E-03  -1.68328863E-02  -7.39498390E-03   2.26323935E-03
              429  -7.86985178E-03  -1.64265279E-02  -7.19896890E-03   2.61849654E-03
              430  -7.83468783E-03  -1.59600861E-02  -6.97060907E-03   2.95486767E-03
              431  -7.78952986E-03  -1.54237561E-02  -6.71445485E-03   3.28258425E-03
              432  -7.73712294E-03  -1.48126371E-02  -6.41674362E-03   3.59810190E-03
              433  -7.67163932E-03  -1.41332559E-02  -6.08533388E-03   3.89302592E-03
              434  -7.59889092E-03  -1.33735584E-02  -5.70983859E-03   4.17023757E-03
              435  -7.51405535E-03  -1.25458762E-02  -5.29344892E-03   4.41932306E-03
              436  -7.41550280E-03  -1.16514042E-02  -4.83457465E-03   4.63635288E-03
              437  -7.30425213E-03  -1.06933182E-02  -4.33325535E-03   4.81890608E-03
              438  -7.17735011E-03  -9.68108699E-03  -3.78918764E-03   4.96063288E-03
              439  -7.02620577E-03  -8.63147527E-03  -3.21022840E-03   5.06050698E-03
              440  -6.84822537E-03  -7.55543355E-03  -2.59196782E-03   5.11420798E-03
              441  -6.64913608E-03  -6.44469168E-03  -1.93836866E-03   5.12648094E-03
              442  -6.41909847E-03  -5.32585150E-03  -1.24848762E-03   5.09376591E-03
              443  -6.15757052E-03  -4.19477420E-03  -5.22216549E-04   5.01924008E-03
              444  -5.86095266E-03  -3.08402581E-03   2.46186944E-04   4.90184035E-03
              445  -5.52225811E-03  -1.99986156E-03   1.04991253E-03   4.74937446E-03
              446  -5.15398895E-03  -9.61592188E-04   1.88322831E-03   4.56519891E-03
              447  -4.82149189E-03  -1.44070407E-04   2.60753511E-03   4.32261312E-03
              448  -4.46235621E-03   1.64720288E-04   2.78237439E-03   3.95731442E-03
              449  -4.12374735E-03   1.36817267E-04   2.52235867E-03   3.51536577E-03
              450  -3.84622160E-03   4.24941827E-05   2.27687927E-03   3.14169913E-03
              451  -3.59315588E-03  -5.29539248E-05   2.05672602E-03   2.83742882E-03
              452  -3.36494111E-03  -1.40478689E-04   1.86017901E-03   2.58656521E-03
              453  -6.48980122E-03  -1.64548457E-02  -6.46855263E-03   4.04912280E-04
              454  -6.48225844E-03  -1.63679607E-02  -6.42395020E-03   7.47743470E-04
              455  -6.47065137E-03  -1.62252448E-02  -6.36024214E-03   1.11551327E-03
              456  -6.46050880E-03  -1.60213653E-02  -6.25365693E-03   1.47885270E-03
              457  -6.43972680E-03  -1.57649759E-02  -6.13250025E-03   1.83055375E-03
              458  -6.41810289E-03  -1.54420659E-02  -5.97291067E-03   2.18587415E-03
              459  -6.38685236E-03  -1.50638409E-02  -5.78678958E-03   2.52482621E-03
              460  -6.34872494E-03  -1.46204475E-02  -5.57185523E-03   2.85918592E-03
              461  -6.30455697E-03  -1.41122118E-02  -5.31895459E-03   3.18135694E-03
              462  -6.25048345E-03  -1.35411276E-02  -5.03590750E-03   3.48816789E-03
              463  -6.19104505E-03  -1.29007716E-02  -4.71364753E-03   3.78077338E-03
              464  -6.12012623E-03  -1.22017525E-02  -4.35802806E-03   4.04979009E-03
              465  -6.04026206E-03  -1.14395637E-02  -3.96430027E-03   4.29525599E-03
              466  -5.95154567E-03  -1.06194317E-02  -3.53321736E-03   4.51342063E-03
              467  -5.84843894E-03  -9.75189172E-03  -3.06661380E-03   4.69818339E-03
              468  -5.72936237E-03  -8.84172413E-03  -2.56541418E-03   4.84876381E-03
              469  -5.59371104E-03  -7.89397117E-03  -2.02867389E-03   4.96268878E-03
              470  -5.44155249E-03  -6.91140071E-03  -1.46016735E-03   5.04127610E-03
              471  -5.26523776E-03  -5.91105269E-03  -8.59298802E-04   5.08090761E-03
              472  -5.06341085E-03  -4.89625940E-03  -2.29733123E-04   5.08449366E-03
              473  -4.83540073E-03  -3.89089575E-03   4.32646688E-04   5.04904985E-03
              474  -4.57758876E-03  -2.87327264E-03   1.12647575E-03   4.98091336E-03
              475  -4.30853106E-03  -1.86822354E-03   1.85289315E-03   4.87447623E-03
              476  -4.06009611E-03  -1.06288097E-03   2.49349768E-03   4.70810384E-03
              477  -3.82744335E-03  -5.80800755E-04   2.69371364E-03   4.37194761E-03
              478  -3.58505012E-03  -4.37437935E-04   2.50081625E-03   3.92118003E-03
              479  -3.41185438E-03  -4.10739245E-04   2.27291882E-03   3.51833482E-03
              480  -3.23828845E-03  -4.02101257E-04   2.06854101E-03   3.17890965E-03
              481  -3.06677143E-03  -4.13785805E-04   1.88329048E-03   2.88628158E-03
              482  -2.90383468E-03  -4.34966729E-04   1.71560771E-03   2.63686106E-03
              483  -5.06269746E-03  -1.50340963E-02  -5.04982984E-03   3.73064860E-04
              484  -5.05634537E-03  -1.49524147E-02  -5.00996690E-03   7.27490755E-04
              485  -5.04712854E-03  -1.48158167E-02  -4.93844924E-03   1.07794558E-03
              486  -5.02922246E-03  -1.46271763E-02  -4.85075684E-03   1.42691424E-03
              487  -5.01046795E-03  -1.43784527E-02  -4.72479220E-03   1.77653413E-03
              488  -4.98242863E-03  -1.40776765E-02  -4.57712729E-03   2.11392250E-03
              489  -4.95034363E-03  -1.37162376E-02  -4.39832220E-03   2.44922494E-03
              490  -4.91319457E-03  -1.32973725E-02  -4.18625865E-03   2.77324184E-03
              491  -4.86787269E-03  -1.28209777E-02  -3.94672761E-03   3.08557483E-03
              492  -4.81736986E-03  -1.22839808E-02  -3.67190945E-03   3.38555453E-03
              493  -4.75780293E-03  -1.16924122E-02  -3.36748315E-03   3.66711710E-03
              494  -4.69385320E-03  -1.10418778E-02  -3.02791153E-03   3.93145438E-03
              495  -4.62055765E-03  -1.03423027E-02  -2.65754992E-03   4.17181663E-03
              496  -4.53451928E-03  -9.59852803E-03  -2.25676154E-03   4.38483246E-03
              497  -4.43915557E-03  -8.80857464E-03  -1.82337034E-03   4.57169488E-03
              498  -4.33318550E-03  -7.97850825E-03  -1.35691720E-03   4.72877175E-03
              499  -4.21365723E-03  -7.11371657E-03  -8.60208587E-04   4.85529006E-03
              500  -4.07269690E-03  -6.22955896E-03  -3.36968980E-04   4.94829332E-03
              501  -3.91234225E-03  -5.33154840E-03   2.10760234E-04   5.00891358E-03
              502  -3.73336184E-03  -4.41199448E-03   7.92935258E-04   5.03736967E-03
              503  -3.55213881E-03  -3.45358858E-03   1.39426172E-03   5.03895245E-03
              504  -3.33490269E-03  -2.59097526E-03   2.02126545E-03   4.99749370E-03
              505  -3.17699602E-03  -1.88134541E-03   2.52574310E-03   4.88094240E-03
              506  -3.05858743E-03  -1.36309117E-03   2.60866247E-03   4.55490174E-03
              507  -2.95204553E-03  -1.09602348E-03   2.42240075E-03   4.12799371E-03
              508  -2.87575368E-03  -9.54140385E-04   2.22165906E-03   3.74520617E-03
              509  -2.78188335E-03  -8.54808255E-04   2.03705160E-03   3.40782106E-03
              510  -2.67805089E-03  -7.89874583E-04   1.86692388E-03   3.10821179E-03
              511  -2.57068779E-03  -7.45403056E-04   1.71162665E-03   2.84600165E-03
              512  -2.46254634E-03  -7.16552779E-04   1.56994292E-03   2.61576381E-03
              513  -3.67363705E-03  -1.36455223E-02  -3.66015988E-03   3.72444629E-04
              514  -3.66542698E-03  -1.35662965E-02  -3.61773628E-03   7.01781188E-04
              515  -3.65224620E-03  -1.34373549E-02  -3.55599495E-03   1.04510353E-03
              516  -3.63734132E-03  -1.32542960E-02  -3.46038491E-03   1.38636830E-03
              517  -3.61409783E-03  -1.30219292E-02  -3.34684527E-03   1.72105117E-03
              518  -3.58832674E-03  -1.27343824E-02  -3.20213521E-03   2.05371086E-03
              519  -3.55700846E-03  -1.23951938E-02  -3.02885054E-03   2.37565232E-03
              520  -3.51875601E-03  -1.20019345E-02  -2.82809604E-03   2.68892525E-03
              521  -3.47686326E-03  -1.15530184E-02  -2.59458390E-03   2.99289427E-03
              522  -3.42803332E-03  -1.10539906E-02  -2.33567297E-03   3.28260916E-03
              523  -3.37341265E-03  -1.05049331E-02  -2.04698974E-03   3.55630065E-03
              524  -3.30918794E-03  -9.91115812E-03  -1.73057383E-03   3.80923855E-03
              525  -3.23982514E-03  -9.26821399E-03  -1.38313673E-03   4.04373044E-03
              526  -3.16562713E-03  -8.58101249E-03  -1.00626878E-03   4.25734883E-03
              527  -3.07970168E-03  -7.86150154E-03  -6.02135959E-04   4.44326689E-03
              528  -2.97845039E-03  -7.11228047E-03  -1.72144384E-04   4.60186508E-03
              529  -2.86206603E-03  -6.33777864E-03   2.82131630E-04   4.73321276E-03
              530  -2.73692212E-03  -5.52493893E-03   7.67851074E-04   4.84049693E-03
              531  -2.61533959E-03  -4.66778362E-03   1.27845677E-03   4.92535764E-03
              532  -2.45501706E-03  -3.86773818E-03   1.80429523E-03   4.96689184E-03
              533  -2.31083226E-03  -3.17210890E-03   2.28831195E-03   4.96390462E-03
              534  -2.26706662E-03  -2.53997114E-03   2.55391351E-03   4.81834169E-03
              535  -2.26792484E-03  -2.03521852E-03   2.48485012E-03   4.47282474E-03
              536  -2.28984910E-03  -1.73196150E-03   2.30613234E-03   4.13621357E-03
              537  -2.29090033E-03  -1.51961867E-03   2.13093986E-03   3.80178518E-03
              538  -2.27307528E-03  -1.34509651E-03   1.96826016E-03   3.49906832E-03
              539  -2.23631086E-03  -1.20960525E-03   1.81688485E-03   3.22024664E-03
              540  -2.18624575E-03  -1.10391749E-03   1.67686108E-03   2.96888244E-03
              541  -2.12658476E-03  -1.02365424E-03   1.54727162E-03   2.74258316E-03
              542  -2.06083758E-03  -9.62372520E-04   1.42783392E-03   2.53975159E-03
              543  -2.30985042E-03  -1.22861415E-02  -2.30285828E-03   3.58205056E-04
              544  -2.30121240E-03  -1.22121908E-02  -2.26522400E-03   6.81976147E-04
              545  -2.28929357E-03  -1.20864259E-02  -2.19585048E-03   1.01170829E-03
              546  -2.27127597E-03  -1.19143063E-02  -2.10984750E-03   1.34231523E-03
              547  -2.25253263E-03  -1.16931815E-02  -1.99453183E-03   1.66915194E-03
              548  -2.22851452E-03  -1.14242062E-02  -1.85371004E-03   1.98690756E-03
              549  -2.20000721E-03  -1.11028813E-02  -1.68466137E-03   2.30052532E-03
              550  -2.16622488E-03  -1.07320398E-02  -1.48994732E-03   2.60619889E-03
              551  -2.12372467E-03  -1.03178937E-02  -1.27604720E-03   2.89812637E-03
              552  -2.07579369E-03  -9.85792186E-03  -1.03352033E-03   3.17581929E-03
              553  -2.02657841E-03  -9.34894290E-03  -7.59061251E-04   3.44085437E-03
              554  -1.97455729E-03  -8.79368931E-03  -4.58082068E-04   3.69200064E-03
              555  -1.90634432E-03  -8.21200851E-03  -1.41807905E-04   3.91819468E-03
              556  -1.82711100E-03  -7.60005228E-03   2.00697832E-04   4.11984883E-03
              557  -1.74497662E-03  -6.94185868E-03   5.78473089E-04   4.30470333E-03
              558  -1.66332582E-03  -6.23579184E-03   9.88815445E-04   4.47318703E-03
              559  -1.58234965E-03  -5.49697410E-03   1.41523336E-03   4.62141400E-03
              560  -1.45963021E-03  -4.82434267E-03   1.84176397E-03   4.71563777E-03
              561  -1.35965878E-03  -4.21945937E-03   2.23847781E-03   4.78503620E-03
              562  -1.36108219E-03  -3.59960878E-03   2.46328348E-03   4.71389759E-03
              563  -1.46686705E-03  -3.03009129E-03   2.48402357E-03   4.53355024E-03
              564  -1.57812331E-03  -2.57187989E-03   2.32320442E-03   4.24591918E-03
              565  -1.65148929E-03  -2.28846911E-03   2.16430775E-03   3.97343468E-03
              566  -1.71624066E-03  -2.03307020E-03   2.01305328E-03   3.70507292E-03
              567  -1.75821956E-03  -1.80729560E-03   1.87315221E-03   3.45515227E-03
              568  -1.77601993E-03  -1.62338605E-03   1.74106564E-03   3.21455137E-03
              569  -1.77696277E-03  -1.47100189E-03   1.61724491E-03   2.99163628E-03
              570  -1.76409597E-03  -1.34609709E-03   1.50140573E-03   2.78494228E-03
              571  -1.74107845E-03  -1.24288502E-03   1.39352807E-03   2.59580859E-03
              572  -1.71052595E-03  -1.15821837E-03   1.29306421E-03   2.42433371E-03
              573  -9.79208155E-04  -1.09553467E-02  -9.69443005E-04   3.47977213E-04
              574  -9.70603549E-04  -1.08824335E-02  -9.29141534E-04   6.62268430E-04
              575  -9.55882308E-04  -1.07712504E-02  -8.81657528E-04   9.84264538E-04
              576  -9.42328945E-04  -1.06128901E-02  -7.98160210E-04   1.29777659E-03
              577  -9.25361761E-04  -1.04043987E-02  -6.81568927E-04   1.60890131E-03
              578  -9.03698732E-04  -1.01454156E-02  -5.36721142E-04   1.91949762E-03
              579  -8.73339421E-04  -9.84337274E-03  -3.75484728E-04   2.22256826E-03
              580  -8.38628155E-04  -9.50150937E-03  -1.96981302E-04   2.51557818E-03
              581  -8.04175623E-04  -9.11553204E-03   1.02024424E-05   2.79899943E-03
              582  -7.70933693E-04  -8.68484844E-03   2.47261749E-04   3.07165855E-03
              583  -7.20634591E-04  -8.22094642E-03   4.96572640E-04   3.32481996E-03
              584  -6.52381277E-04  -7.73007888E-03   7.56739930E-04   3.55845876E-03
              585  -6.05303620E-04  -7.18139391E-03   1.06554967E-03   3.78701231E-03
              586  -5.62106550E-04  -6.59155985E-03   1.40293024E-03   4.00049612E-03
              587  -4.86415316E-04  -6.02788059E-03   1.73231855E-03   4.17039264E-03
              588  -4.09831089E-04  -5.51735330E-03   2.06925371E-03   4.31418139E-03
              589  -3.86457396E-04  -4.96429857E-03   2.29966803E-03   4.37119417E-03
              590  -4.84309276E-04  -4.40482376E-03   2.44299369E-03   4.38556215E-03
              591  -6.66975044E-04  -3.81650543E-03   2.40637385E-03   4.24960582E-03
              592  -8.44647642E-04  -3.34400311E-03   2.27789301E-03   4.08666302E-03
              593  -9.73574352E-04  -3.02398112E-03   2.13880092E-03   3.89692467E-03
              594  -1.09350483E-03  -2.73044594E-03   2.00321595E-03   3.69767006E-03
              595  -1.19796291E-03  -2.44564912E-03   1.87897496E-03   3.49902897E-03
              596  -1.27417140E-03  -2.20110966E-03   1.76070607E-03   3.30039696E-03
              597  -1.33111957E-03  -1.99147570E-03   1.64726155E-03   3.10521107E-03
              598  -1.37206214E-03  -1.80996652E-03   1.53949484E-03   2.92047532E-03
              599  -1.39703974E-03  -1.65453961E-03   1.43782294E-03   2.74369074E-03
              600  -1.40948384E-03  -1.52115477E-03   1.34219998E-03   2.57784920E-03
              601  -1.41104276E-03  -1.40808744E-03   1.25229685E-03   2.42232322E-03
              602  -1.40462536E-03  -1.31077692E-03   1.16817816E-03   2.27770349E-03
              603   5.61291701E-04  -3.00237304E-03   9.43437859E-04   1.15122565E-03
              604  -1.24187776E-04  -1.92864065E-03   7.12751353E-04   1.39012863E-03
              605  -2.13363441E-03  -3.11633048E-04   4.80093411E-04   9.83862788E-04
              606   1.39972032E-03  -4.94154450E-03   1.65830227E-03   1.27435010E-03
              607   1.83729499E-04  -3.05472594E-03   1.22956419E-03   2.04797019E-03
              608  -1.43741246E-03  -6.36655488E-04   5.89029281E-04   1.29616889E-03
              609  -5.37878426E-04  -1.56983070E-03   7.33717927E-04   1.57873146E-03
              610  -3.56884208E-04  -2.17937911E-03   1.02074211E-03   1.98707520E-03
              611   9.53383686E-04  -4.64181509E-03   1.74381246E-03   2.22863024E-03
              612  -3.57524632E-03  -1.47466213E-04   7.86487479E-04   1.03271939E-03
              613  -1.18087255E-03  -8.86579277E-04   6.55828626E-04   1.45075261E-03
              614   2.06821249E-03  -6.51461584E-03   2.21799524E-03   1.03910035E-03
              615   4.24533413E-04  -3.97554506E-03   1.67868484E-03   2.59691011E-03
              616  -1.90560764E-04  -2.90762261E-03   1.42058369E-03   2.54536979E-03
              617  -2.73007527E-03  -3.22156062E-04   9.56174044E-04   1.44515198E-03
              618   1.48894533E-03  -5.80943376E-03   2.17808224E-03   2.34322646E-03
              619  -7.35237438E-04  -1.77712063E-03   1.01410749E-03   2.06591608E-03
              620  -8.03735107E-04  -1.14054617E-03   6.30112714E-04   1.45028043E-03
              621  -5.12492144E-04  -2.45284964E-03   1.30980450E-03   2.50353781E-03
              622  -7.96458044E-04  -1.51639862E-03   8.69700219E-04   1.81622023E-03
              623  -2.01707217E-03  -5.78692707E-04   8.98422441E-04   1.62933406E-03
              624   1.01929647E-03  -3.76725476E-03   1.12796552E-03   7.08451495E-04
              625  -1.84984831E-03  -1.46534789E-04   2.65634386E-04   6.46038214E-04
              626   9.04997054E-04  -5.11893397E-03   2.13635620E-03   2.99835810E-03
              627   1.95215235E-03  -7.97400065E-03   1.96570484E-03   8.18755012E-04
              628   1.65601179E-03  -7.50530418E-03   2.09138053E-03   2.00405810E-03
              629  -1.64886552E-03  -8.36490712E-04   9.40055063E-04   1.79209397E-03
              630   2.65810340E-05  -3.60767078E-03   1.74412364E-03   2.95544113E-03
              631   5.26812917E-04  -2.49164272E-03   6.59136684E-04   6.02816406E-04
              632  -2.78349104E-03  -6.94085466E-05   4.20766068E-04   6.72510185E-04
              633   1.95573652E-04  -2.29278486E-03   7.30861444E-04   1.22448336E-03
              634  -5.02391579E-03  -9.51469992E-05   1.15461217E-03   9.43276682E-04
              635  -1.36927888E-03  -4.12989262E-04   3.37203383E-04   9.14807257E-04
              636  -8.14035709E-04  -2.00849446E-03   1.23806507E-03   2.43897433E-03
              637   1.40807126E-03  -6.01200294E-03   2.43442133E-03   3.03558516E-03
              638   5.00685128E-04  -4.67320997E-03   2.13161856E-03   3.27563286E-03
              639  -1.16789725E-03  -1.11038017E-03   8.17918684E-04   1.70711591E-03
              640  -9.98099218E-04  -6.76849508E-04   3.95885552E-04   1.04768621E-03
              641  -8.05353222E-04  -8.53563775E-04   4.46861814E-04   1.14152429E-03
              642  -5.00056602E-04  -1.13392144E-03   4.56419308E-04   1.12785550E-03
              643   8.99321807E-04  -3.92769836E-03   1.31903496E-03   1.45771389E-03
              644  -3.87392985E-03  -1.30969012E-04   1.23893120E-03   1.38241728E-03
              645   1.61044684E-03  -5.26912045E-03   1.69417099E-03   7.82572781E-04
              646  -4.00119403E-04  -2.82822689E-03   1.51409581E-03   2.77097686E-03
              647   1.63189438E-03  -7.09334714E-03   2.34360737E-03   2.41666823E-03
              648  -8.76941602E-04  -1.69649883E-03   1.06507726E-03   2.15164549E-03
              649   4.72409680E-04  -3.62532656E-03   1.38441648E-03   2.06253235E-03
              650  -3.15539859E-04  -1.45381247E-03   5.34641324E-04   1.21649692E-03
              651   2.59459848E-05  -1.72766717E-03   5.09382167E-04   9.88948159E-04
              652   6.51513110E-04  -2.74616270E-03   7.09726475E-04   3.87676264E-04
              653   3.61370243E-04  -2.31719017E-03   6.60611433E-04   9.13376687E-04
              654  -2.90260177E-05  -2.28781230E-03   8.68152478E-04   1.60730525E-03
              655  -3.01480596E-03  -2.48750905E-04   1.26208051E-03   1.67809648E-03
              656  -2.17448990E-03  -5.94585261E-04   1.11008424E-03   1.88632368E-03
              657  -8.93586664E-04  -1.19907968E-03   7.22809229E-04   1.58543780E-03
              658  -3.93329281E-03  -8.74325051E-05   6.57125842E-04   5.69529715E-04
              659  -1.49008876E-03  -3.27964313E-04   3.00835323E-04   8.59248510E-04
              660   3.41604202E-04  -2.79962854E-03   9.46684973E-04   1.44056953E-03
              661  -2.57892604E-03  -2.81256682E-04   6.08187460E-04   1.06289587E-03
              662   1.68166985E-03  -5.77169284E-03   2.01879814E-03   1.59717305E-03
              663   1.26400113E-03  -4.96761315E-03   1.75803364E-03   1.79308373E-03
              664   1.13430177E-03  -4.02885256E-03   1.17477018E-03   3.64005566E-04
              665  -3.50236055E-03  -8.94667828E-05   1.28626730E-03   1.55334547E-03
              666  -3.99199373E-04  -1.79697643E-03   7.97602930E-04   1.64325861E-03
              667  -6.53603405E-04  -2.44363211E-03   1.40277576E-03   2.68608425E-03
              668  -2.31638830E-03  -5.19395166E-04   1.10127393E-03   1.82220712E-03
              669   2.15969703E-04  -4.09373362E-03   1.92564074E-03   3.14912805E-03
              670   1.07275567E-03  -4.05834010E-03   1.28831412E-03   1.02254981E-03
              671  -2.55863415E-04  -3.24151618E-03   1.70367572E-03   3.02282977E-03
              672  -1.39355398E-04  -2.52348674E-03   1.10741740E-03   2.03085714E-03
              673   1.50208850E-03  -6.57353410E-03   2.38516764E-03   2.83370889E-03
              674   2.22858554E-03  -6.92785624E-03   2.33867997E-03   5.12104656E-04
              675  -8.78600928E-04  -1.48482306E-03   9.05886875E-04   1.88769493E-03
              676   1.76673871E-03  -8.20360053E-03   1.77122082E-03   4.32206260E-04
              677   1.01753321E-04  -3.37113859E-03   1.51754962E-03   2.55376240E-03
              678  -4.54986095E-03  -4.42913115E-05   1.32711406E-03   1.20770361E-03
              679  -5.62994182E-03  -1.31931265E-05   9.83720412E-04   5.26684104E-04
              680   8.67764407E-04  -5.42703038E-03   2.35978281E-03   3.39765032E-03
              681  -1.70249562E-03  -6.37695892E-04   7.31831475E-04   1.45713938E-03
              682  -2.19055172E-03  -7.65127916E-05   2.53494363E-04   5.14598389E-04
              683  -8.52797180E-04  -1.84497202E-03   1.15025183E-03   2.28344696E-03
              684   6.88670145E-04  -4.42873873E-03   1.79802976E-03   2.60722428E-03
              685  -1.20505004E-03  -5.46905329E-04   4.00241581E-04   1.02804042E-03
              686  -2.26069614E-03  -1.97799309E-04   3.90108849E-04   7.94096733E-04
              687  -2.08422658E-03  -4.41880315E-04   7.11351866E-04   1.32347166E-03
              688  -1.31561793E-03  -7.58865441E-04   6.29378774E-04   1.39312400E-03
              689   1.02348963E-03  -8.12696666E-03   1.43134431E-03   2.03062873E-03
              690   9.50054848E-04  -3.48462374E-03   9.77161108E-04   3.95956624E-04
              691   4.56766924E-04  -2.06170254E-03   4.72951448E-04   1.91065992E-04
              692  -1.41370285E-03  -1.06760859E-03   9.67695611E-04   1.92439253E-03
              693  -6.50522299E-04  -2.07254197E-03   1.14965893E-03   2.26072641E-03
              694  -6.52135583E-04  -1.41437165E-03   6.96356525E-04   1.53668027E-03
              695   1.09498238E-03  -8.64000991E-03   1.22670259E-03   1.14440091E-03
              696  -1.28740503E-03  -1.98603972E-04   1.44639227E-04   4.74947417E-04
              697   1.67645910E-03  -5.59755927E-03   1.88652985E-03   1.18439679E-03
              698  -2.85985705E-04  -1.69681211E-03   6.71526417E-04   1.39930448E-03
              699   2.05432443E-04  -2.63454043E-03   9.30583745E-04   1.54966745E-03
              700  -1.11338755E-04  -1.66298391E-03   5.57588006E-04   1.16320234E-03
              701  -6.84358893E-05  -3.77251301E-03   1.92958198E-03   3.29670985E-03
              702  -2.55866558E-04  -2.03677127E-03   8.70147604E-04   1.71477115E-03
              703  -3.18922289E-03  -2.21287977E-04   8.90454336E-04   1.24899077E-03
              704  -6.59584592E-04  -1.61453814E-03   8.41406931E-04   1.76948553E-03
              705  -1.96584803E-03  -7.88063975E-04   1.15343952E-03   2.07382417E-03
              706   1.85617106E-03  -6.53582718E-03   2.36783386E-03   2.10659974E-03
              707  -2.98237341E-04  -2.57784082E-03   1.26668019E-03   2.35376251E-03
              708   2.97327671E-04  -3.48833855E-03   1.44333835E-03   2.30992679E-03
              709  -5.27635915E-04  -1.31884683E-03   5.70699456E-04   1.31668837E-03
              710  -3.37225036E-03  -4.18530472E-05   4.12327703E-04   3.62026418E-04
              711   6.53409516E-04  -3.85655975E-03   1.40940992E-03   1.93090702E-03
              712  -1.69735006E-03  -4.01129073E-04   4.45110083E-04   1.05026574E-03
              713  -6.45947759E-04  -1.07139675E-03   4.91161365E-04   1.20413513E-03
              714  -1.03108655E-03  -1.04474672E-03   6.93933573E-04   1.52619334E-03
              715   1.32967730E-03  -4.62372601E-03   1.47430203E-03   9.12217074E-04
              716  -1.14191603E-03  -7.33784284E-04   4.99751011E-04   1.21304486E-03
              717  -4.90084570E-03   5.44125442E-06   7.47256505E-04   4.51370579E-04
              718  -2.93558766E-03  -2.44083523E-04   5.92797354E-04   9.11702635E-04
              719   2.31985774E-04  -1.85109908E-03   4.73007967E-04   7.20659271E-04
              720   3.25243018E-04  -2.00951844E-03   5.05948090E-04   6.28532842E-04
              721  -8.01559305E-04  -2.21902342E-03   1.37602980E-03   2.65221158E-03
              722  -6.43047388E-04  -2.68077082E-03   1.58112915E-03   2.96657556E-03
              723   8.42844660E-04  -3.54616391E-03   1.11154059E-03   1.08497741E-03
              724  -8.47100106E-04  -9.92588932E-04   5.54431172E-04   1.31407310E-03
              725   1.12171890E-03  -6.10115984E-03   2.42322357E-03   3.32163996E-03
              726   6.69270172E-04  -5.10788895E-03   2.36550532E-03   3.54206143E-03
              727  -1.13843288E-03  -3.78160883E-04   2.54952582E-04   8.01034563E-04
              728  -1.60902261E-03  -5.23698865E-04   5.52521844E-04   1.18866668E-03
              729  -9.97482333E-04  -1.55255629E-03   1.04591867E-03   2.12085643E-03
              730   1.80719525E-03  -5.74715901E-03   1.90528960E-03   4.21018165E-04
              731  -5.71405608E-03  -8.75488695E-06   1.45220011E-03   9.63115250E-04
              732  -1.76084926E-03  -5.92673256E-04   6.95018913E-04   1.39649725E-03
              733   1.07455335E-03  -7.83973746E-03   1.58423209E-03   2.28930754E-03
              734   1.01907388E-03  -8.35440122E-03   1.34900189E-03   1.72269926E-03
              735  -9.98759759E-04  -1.30958343E-03   8.63655179E-04   1.81620615E-03
              736   2.30127116E-05  -2.05885386E-03   6.79564720E-04   1.26034976E-03
              737   2.09655307E-04  -2.02322146E-03   5.77673898E-04   9.38662910E-04
              738   8.30294084E-06  -2.98035285E-03   1.31895673E-03   2.29809037E-03
              739  -2.61251372E-03  -3.18521139E-04   7.52306136E-04   1.24719448E-03
              740  -2.59021274E-03  -3.76655138E-04   1.09872851E-03   1.65713916E-03
              741   1.44807366E-03  -4.78716241E-03   1.51028158E-03   3.96388554E-04
              742   1.07239280E-03  -8.78960919E-03   1.11696403E-03   8.75488040E-04
              743   1.83702284E-03  -5.81365265E-03   1.91614369E-03   6.20330160E-04
              744   5.67251933E-04  -3.33644846E-03   1.14074140E-03   1.54893915E-03
              745  -1.39197533E-03  -9.17178579E-04   8.21879017E-04   1.67579146E-03
              746  -5.31838392E-04  -2.92246044E-03   1.68152386E-03   3.09426151E-03
              747  -8.91648291E-04  -2.10606051E-03   1.36619166E-03   2.64285528E-03
              748   1.05285365E-03  -8.51793773E-03   1.29422278E-03   1.41519750E-03
              749  -7.22389435E-04  -7.58925569E-04   3.41562729E-04   9.55662690E-04
              750  -4.57933592E-03   1.30544213E-04   1.66323315E-03   1.44249201E-03
              751  -4.22083540E-03  -5.18711968E-05   1.06288039E-03   1.05346472E-03
              752  -3.44884233E-04  -1.23459764E-03   4.30267770E-04   1.03338342E-03
              753   1.15999626E-03  -4.43888921E-03   1.48726860E-03   1.36323820E-03
              754  -9.87780048E-04  -1.66352198E-03   1.12473767E-03   2.24674400E-03
              755   3.70319409E-04  -2.60627852E-03   8.17142194E-04   1.19003921E-03
              756  -2.66488781E-03  -2.26470875E-05   2.83301371E-04   3.36811063E-04
              757  -7.72457046E-04  -1.61298527E-03   9.22584091E-04   1.91987422E-03
              758   2.02453882E-03  -6.79703895E-03   2.37212679E-03   1.68673403E-03
              759   3.10760079E-04  -4.54802066E-03   2.16685818E-03   3.49154649E-03
              760   1.16464216E-03  -7.31339585E-03   1.91813963E-03   2.65606679E-03
              761   1.22178672E-03  -6.58396445E-03   2.27840059E-03   3.10160825E-03
              762  -6.14487159E-04  -9.15572513E-04   3.82790691E-04   1.01982919E-03
              763   6.44149026E-04  -4.65286430E-03   1.98720675E-03   2.95150932E-03
              764   1.73693537E-04  -3.74087505E-03   1.72239239E-03   2.83716712E-03
              765  -3.64932464E-04  -3.24932998E-03   1.81839522E-03   3.24219675E-03
              766  -9.88759566E-04  -4.96348599E-04   2.90744676E-04   8.70562391E-04
              767  -1.80887920E-03  -2.70790788E-05   1.27794425E-04   2.56986852E-04
              768  -1.26145617E-03  -1.15351460E-03   9.14354052E-04   1.82662928E-03
              769  -4.14004410E-03  -4.89758168E-06   5.57923922E-04   3.81191960E-04
              770   1.42561109E-03  -5.90368547E-03   2.32850248E-03   2.74931127E-03
              771  -1.66701712E-03  -9.43072024E-04   1.05623226E-03   1.99738285E-03
              772  -3.58134951E-03  -4.89060767E-05   1.54616637E-03   1.81499938E-03
              773  -3.32413358E-03  -1.19956509E-04   5.70666161E-04   7.45310099E-04
              774  -1.03979168E-04  -3.27832927E-03   1.59956445E-03   2.77698436E-03
              775  -3.95399402E-04  -2.60476465E-03   1.35622115E-03   2.55162851E-03
              776   3.91586800E-04  -2.01197295E-03   4.72954183E-04   3.86694388E-04
              777  -3.95634212E-03   8.38818505E-06   1.53114658E-03   1.59820053E-03
              778   5.48531360E-04  -2.71019712E-03   7.82794785E-04   8.59444728E-04
              779   1.10176210E-04  -4.26774565E-03   2.11693579E-03   3.52598401E-03
              780  -2.41448201E-04  -3.56294168E-03   1.92979188E-03   3.36463237E-03
              781  -2.87716696E-03  -3.07500275E-04   1.40455784E-03   2.01640511E-03
              782   7.25424848E-04  -2.97205290E-03   8.09268327E-04   5.54724131E-04
              783   2.35625403E-03  -7.64981797E-03   2.34192982E-03   1.21710786E-04
              784  -5.57177817E-04  -1.88014470E-03   9.55748255E-04   1.94442819E-03
              785  -9.60692822E-04  -1.80665974E-03   1.20727567E-03   2.38034641E-03
              786  -2.56401184E-03  -4.77827212E-04   1.33088371E-03   2.07990874E-03
              787  -1.23768754E-03  -6.53442752E-04   4.90170147E-04   1.21617783E-03
              788  -2.65010586E-03  -2.11591600E-04   5.02224313E-04   8.82545311E-04
              789  -1.80968526E-03  -2.52140162E-04   3.68623412E-04   8.82938504E-04
              790   1.86777662E-03  -7.76300579E-03   2.05290131E-03   1.43448717E-03
              791   1.94217532E-03  -7.75757805E-03   2.06681783E-03   1.14343315E-03
              792  -4.19815013E-04  -1.50511158E-03   6.26240508E-04   1.39276835E-03
              793  -7.35385518E-04  -1.89893343E-03   1.09825830E-03   2.16998532E-03
              794   1.16983289E-03  -5.35404310E-03   2.11007660E-03   2.65721790E-03
              795   9.37262783E-04  -4.88268491E-03   1.93355058E-03   2.60313693E-03
              796  -1.14614042E-04  -2.27278168E-03   9.37082572E-04   1.77131302E-03
              797  -5.70965640E-04  -2.58083874E-03   1.44391926E-03   2.72845197E-03
              798   3.71932430E-04  -3.17763421E-03   1.17008900E-03   1.80476252E-03
              799  -9.28701891E-04  -1.95628591E-03   1.29357446E-03   2.52818060E-03
              800   1.56253239E-03  -5.76313306E-03   2.07486958E-03   1.95847964E-03
              801   1.14506229E-05  -2.27139797E-03   8.05854856E-04   1.46599952E-03
              802   1.68791297E-03  -7.29898270E-03   2.19542766E-03   2.20583659E-03
              803  -6.58960780E-04  -2.29445426E-03   1.30106253E-03   2.51433114E-03
              804   6.65377156E-05  -2.64472282E-03   1.03402347E-03   1.82518642E-03
              805  -3.34971747E-03  -1.72023603E-04   1.10651553E-03   1.41665793E-03
              806  -2.25753966E-03  -6.32676936E-04   1.25588838E-03   2.10837927E-03
              807  -8.87981791E-04  -1.58135488E-03   9.81899211E-04   2.02227919E-03
              808  -2.07768730E-03  -4.04888822E-04   5.88859606E-04   1.17582816E-03
              809   8.95982084E-04  -9.12325084E-03   8.19736102E-04   3.63133266E-04
              810   9.39968275E-04  -4.32177726E-03   1.54293387E-03   1.85107242E-03
              811  -4.49831947E-04  -2.31380248E-03   1.16988178E-03   2.25180457E-03
              812   6.99089316E-04  -4.19884128E-03   1.61376456E-03   2.26031686E-03
              813   5.86438575E-04  -2.43180548E-03   5.92836645E-04   2.00785842E-04
              814  -4.30858880E-03  -8.06305106E-05   8.80746346E-04   8.66425282E-04
              815  -8.45816336E-04  -1.39356742E-03   8.15844163E-04   1.73903583E-03
              816   6.33101445E-04  -4.82726004E-03   2.14196229E-03   3.22039775E-03
              817   7.65446806E-04  -2.91137653E-03   7.53662549E-04   2.48610217E-04
              818   1.63216144E-03  -7.81889912E-03   1.86099799E-03   1.68329454E-03
              819   5.25186828E-04  -3.91406985E-03   1.54737232E-03   2.25324649E-03
              820  -1.96329493E-04  -1.39223912E-03   4.44155594E-04   1.00292987E-03
              821  -1.45542750E-03   6.24868771E-05   5.52922320E-05   8.23259616E-05
              822   5.24898525E-04  -2.39359215E-03   5.95129619E-04   3.99797922E-04
              823  -2.22673858E-04  -1.60146097E-03   5.83851594E-04   1.26354373E-03
              824   1.23741978E-03  -4.20173444E-03   1.25797838E-03   3.53046984E-04
              825  -8.66133021E-04  -7.97165208E-04   4.24059050E-04   1.10426568E-03
              826  -3.74393561E-03  -1.50166670E-04   9.92565067E-04   1.19613996E-03
              827   1.19194668E-03  -5.62795438E-03   2.31025508E-03   3.03158583E-03
              828  -4.95573413E-03   1.27235573E-04   1.75061414E-03   1.29878405E-03
              829   1.71704264E-03  -6.54347707E-03   2.40917131E-03   2.48413766E-03
              830  -2.43124948E-03  -7.83000942E-05   3.48216679E-04   6.92892412E-04
              831  -1.87249691E-03  -7.12188135E-04   9.65530868E-04   1.77475729E-03
              832  -2.26715766E-03   2.26173161E-05   1.59723728E-04   8.20874338E-05
              833  -7.18049239E-04  -2.46972730E-03   1.49228889E-03   2.83437385E-03
              834  -6.72575115E-05  -1.47561985E-03   4.16954019E-04   8.82613240E-04
              835  -6.41601393E-03  -4.55294867E-06   1.26232335E-03   5.84969646E-04
              836   1.21324649E-03  -5.16886683E-03   1.93425152E-03   2.24771700E-03
              837  -3.05422558E-03  -2.28324774E-04   7.12009321E-04   1.07797410E-03
              838  -3.23070539E-03  -1.50089109E-04   1.49051927E-03   1.93085626E-03
              839  -6.91809808E-04  -1.20730279E-03   5.99471852E-04   1.38906646E-03
              840   7.87982426E-04  -3.23747681E-03   9.47032939E-04   8.01686954E-04
              841  -4.87143319E-04  -1.01127231E-03   3.81216320E-04   1.02566136E-03
              842  -3.19679175E-03  -2.14408457E-04   1.25564239E-03   1.64586899E-03
              843  -9.97541705E-04  -1.44729507E-03   9.69942310E-04   1.99075718E-03
              844  -7.35199777E-04  -1.47929718E-03   7.99288333E-04   1.70134101E-03
              845   5.66467235E-04  -4.95809736E-03   2.35914811E-03   3.64096975E-03
              846   1.24559843E-03  -4.30781581E-03   1.30582019E-03   5.61654626E-04
              847   1.44968461E-03  -5.20536210E-03   1.80309080E-03   1.57260580E-03
              848   4.33354522E-04  -4.33716970E-03   1.92267855E-03   2.99094408E-03
              849  -1.34554668E-03  -2.49998586E-04   2.19349866E-04   6.80492143E-04
              850  -7.71996623E-04  -1.31031987E-03   7.09176355E-04   1.56696932E-03
              851  -1.51225808E-03  -1.00099693E-04   1.43055891E-04   4.12513735E-04
              852  -8.61192006E-04  -6.15235127E-04   3.17596481E-04   9.18874633E-04
              853   1.04875816E-03  -7.17532542E-03   1.88759516E-03   2.87407427E-03
              854  -5.21623017E-03   3.05077119E-05   1.60832959E-03   1.14759093E-03
              855  -2.09339731E-03  -4.78818460E-04   8.31140089E-04   1.48828584E-03
              856  -1.01096951E-03  -8.47400224E-04   5.30521211E-04   1.26786134E-03
              857  -1.55716413E-03  -7.46044854E-04   7.71762803E-04   1.55156129E-03
              858   9.68971057E-04  -8.96250550E-03   9.98203643E-04   6.04708388E-04
              859  -3.71599512E-04  -1.36000908E-03   5.02166688E-04   1.15464616E-03
              860  -6.76720374E-05  -8.76720296E-05   6.72244096E-06   8.77813145E-05
              861  -1.64851022E-04  -1.06290572E-04   1.20903696E-05   1.58600044E-04
              862  -6.71972793E-06  -7.98556266E-06   4.72571770E-07   8.13428414E-06
              863  -1.32661935E-05  -4.58659808E-04   5.43181704E-05   1.79082374E-04
              864  -1.12923033E-06  -9.56649046E-07  -5.16490317E-08   1.00051443E-06
              865  -3.67115368E-04  -1.38494070E-04   2.90463813E-05   2.92311830E-04
              866  -1.18234266E-05  -4.69022089E-05   3.31233150E-06   2.77984491E-05
              867  -2.01275652E-05  -9.49562036E-06  -2.96628059E-07   1.92563966E-05
              868  -1.11950816E-04  -4.98094305E-04   7.98593028E-05   3.54203978E-04
              869  -1.36547324E-05  -2.39736619E-04   2.14204319E-05   9.23714542E-05
              870   9.50909744E-05  -9.32898256E-04   1.61074437E-04   2.67221738E-04
              871  -1.06692903E-06  -3.53229939E-06   1.47445732E-07   2.10203098E-06
              872  -2.23647430E-06  -8.04009801E-07  -1.76045859E-07   1.61041908E-06
              873  -4.85111741E-07  -1.97918212E-06  -2.16393943E-07   7.08856817E-07
              874  -8.99428051E-06  -9.69082976E-07  -1.50854282E-06   4.31499984E-06
              875  -1.25442853E-06  -1.95407229E-05   1.42275371E-06   7.36904894E-06
              876  -3.95981806E-05  -1.21991525E-05  -3.29603790E-06   2.66227162E-05
              877  -8.93221077E-05  -3.07213231E-05  -6.86791964E-06   5.67430834E-05
              878  -4.32849396E-04  -2.77665909E-04   6.60881342E-05   4.01503930E-04
              879  -8.09588309E-05  -2.34458363E-04   2.70942801E-05   1.71059612E-04
              880  -7.48003949E-05  -7.50202744E-04   1.29626074E-04   3.93626571E-04
              881  -1.84231205E-04  -3.29964605E-05  -1.06500529E-05   9.64494975E-05
              882  -5.19429761E-07  -1.17389732E-07  -7.20498434E-08   2.21382322E-07
              883  -8.21860056E-07  -7.85546035E-06   5.83323413E-07   3.56722626E-06
              884  -2.67848873E-06  -1.06871186E-04   8.45882460E-06   3.62742940E-05
              885  -3.61625396E-04  -5.36831096E-04   1.44771824E-04   5.73644531E-04
              886  -6.26362453E-04  -7.58782990E-05   2.85184160E-05   2.60411092E-04
              887  -8.13462066E-07  -1.80626898E-07  -1.11659510E-07   4.91316825E-07
              888  -2.65188328E-06  -4.13045109E-06   3.17933313E-07   3.76561047E-06
              889  -2.98734858E-06  -6.32509170E-07  -5.94731773E-07   1.76199592E-06
              890  -2.58888358E-05  -5.54595226E-06  -2.94505116E-06   1.51542808E-05
              891   2.31984624E-04  -1.28110300E-03   2.47854914E-04   1.91564846E-04
              892   2.05561846E-05  -4.56711627E-04   4.66815145E-05   1.13370857E-04
              893  -3.12748707E-05  -3.68728397E-05   2.26072689E-06   3.81518257E-05
              894  -7.22728544E-07  -9.42078827E-07  -2.31234409E-07   5.84805434E-07
              895  -3.22312104E-07  -3.17164404E-06  -2.06553068E-08   9.52070764E-07
              896   4.07455644E-07  -4.98839945E-05   3.88260059E-06   1.59574793E-05
              897  -1.17123636E-05  -1.84518776E-05   1.21993367E-06   1.69947143E-05
              898  -2.66194784E-05  -1.02759659E-04   7.53594895E-06   5.79291300E-05
              899  -1.24615544E-05   1.41629062E-06  -2.42907913E-06   4.58982140E-06
              900   2.23732798E-07  -6.99574503E-06   3.87149015E-07   1.33513379E-06
              901   6.91334862E-05  -1.07228779E-03   2.02641197E-04   4.23443998E-04
              902  -7.76440004E-07  -1.95570510E-06  -7.54958336E-08   1.14332204E-06
              903   6.99599696E-05  -6.75233721E-04   8.35344763E-05   1.16613177E-04
              904   1.17223635E-05  -1.55024361E-04   1.27415069E-05   3.05292342E-05
              905   4.04508228E-07  -1.48778681E-05   1.20094762E-06   3.37464280E-06
              906  -5.67656592E-04  -3.14345438E-04   9.99450567E-05   5.06850891E-04
              907  -1.69180828E-06  -1.84425483E-06   9.17290350E-08   1.97896111E-06
              908  -7.48988043E-07  -5.01181376E-07  -1.39881877E-07   4.79204516E-07
              909  -1.29481737E-06  -1.18091193E-05   9.54573693E-07   5.41506824E-06
              910  -2.07593213E-04  -1.82637974E-04   2.85459701E-05   2.32619743E-04
              911  -9.92462265E-06  -3.31660645E-04   3.18842722E-05   1.18446238E-04
              912  -5.41012469E-06  -3.45397257E-06   4.74501594E-09   4.78357970E-06
              913  -7.60961382E-04  -2.66957301E-07   1.84712771E-05   2.29264289E-04
              914   7.50026584E-06  -2.57689098E-04   2.34369836E-05   6.63495739E-05
              915   1.47391020E-05  -2.05793331E-04   1.82894692E-05   2.55336108E-05
              916   5.41579948E-06  -8.09088961E-05   7.27713632E-06   1.34914681E-05
              917  -2.76532919E-05  -3.75332638E-06  -1.02424256E-05   9.98355790E-06
              918  -1.36738481E-06  -3.54694521E-07  -4.76500418E-07   8.20909463E-07
              919  -1.83053999E-05  -3.09137795E-05   2.07456696E-06   2.57194260E-05
              920  -4.82165051E-04  -4.88687947E-04   1.57125731E-04   6.31167786E-04
              921  -5.45630610E-05  -1.53293640E-05  -7.82338338E-06   2.76868941E-05
              922  -1.79047788E-06  -5.27915063E-07  -1.91506774E-06   8.51947789E-07
              923  -9.64408973E-05  -6.45524706E-05   2.22347671E-06   8.84772162E-05
              924   1.08429856E-06  -3.64476764E-05   2.77949698E-06   1.03146149E-05
              925  -3.70082648E-06  -2.59049229E-05   1.85788986E-06   1.21666417E-05
              926  -3.80389283E-05  -1.61070639E-04   1.39427975E-05   1.00583777E-04
              927  -2.42062981E-07  -2.64981986E-06  -1.43858756E-07   4.80560857E-07
              928  -1.23717200E-05  -5.72407316E-06  -4.80025392E-07   9.96128801E-06
              929   4.81557720E-07  -1.02478007E-05   8.11133418E-07   2.37134600E-06
              930  -4.92521579E-08  -2.70519447E-08  -4.28911946E-08   2.10892086E-08
              931  -8.35861661E-04  -1.54447131E-04   8.22717702E-05   4.10446723E-04
              932  -5.59968157E-07  -1.24860847E-07  -6.69185809E-08   3.28599299E-07
              933  -9.88781721E-07  -2.58506276E-07  -5.44501582E-08   7.28528960E-07
              934  -4.74182918E-04  -1.64666144E-05  -2.55144023E-05   9.33501287E-05
              935  -1.22305559E-04  -1.53636865E-05  -1.35777718E-05   5.13915365E-05
              936  -4.53115026E-05  -9.36186407E-04   1.78889008E-04   4.77049034E-04
              937   8.87021542E-07  -2.43131926E-05   1.97310237E-06   4.76727973E-06
              938   1.79955357E-04  -1.36742147E-03   2.85290764E-04   3.89152148E-04
              939  -2.81158077E-06  -7.14815314E-07  -2.96164217E-06   1.34716254E-06
              940  -8.69074865E-05  -3.44247033E-04   4.45836849E-05   2.24519958E-04
              941   5.90831041E-06  -1.09912267E-04   9.58327291E-06   1.76659159E-05
              942  -2.19099587E-04  -1.69883187E-05  -2.81476678E-05   6.02603068E-05
              943  -6.03497483E-06  -1.62555389E-05   1.14096360E-06   1.12815806E-05
              944   1.39302501E-04  -9.61110520E-04   1.57020389E-04   1.18822871E-04
              945  -2.92566197E-04  -8.03766598E-04   2.22281727E-04   6.63477520E-04
              946  -5.54747967E-05  -4.60087140E-05   2.44091552E-06   5.74558180E-05
              947  -4.86534475E-07  -1.99524337E-07  -1.24967670E-07   1.50440286E-07
              948  -1.21302185E-06  -1.90159471E-06   2.59556820E-08   1.60756258E-06
              949  -6.57765554E-07  -1.12093107E-06  -3.55633659E-07   4.66943391E-07
              950  -8.70545773E-06  -1.09735777E-06  -5.61245588E-06   4.15237992E-06
              951  -2.02264928E-05  -6.93885304E-05   4.96404118E-06   4.32769048E-05
              952  -2.61389359E-04  -1.23762293E-04   1.84656965E-05   2.05993521E-04
              953  -1.37348703E-04  -4.31228837E-05  -4.93555899E-06   8.84033652E-05
              954  -8.11625214E-05  -1.85133467E-05  -1.27434623E-05   5.04419186E-05
              955  -2.65910552E-04  -3.20312043E-04   6.25186658E-05   3.45369161E-04
              956  -6.32626645E-04  -4.68650745E-04   1.81684532E-04   6.75676740E-04
              957   9.92225687E-05  -7.39489740E-04   1.02960490E-04   6.13638331E-05
              958  -7.80740054E-04  -2.51454825E-04   1.16194395E-04   5.18534682E-04
              959  -5.82201210E-05  -5.40156907E-04   7.80617847E-05   2.86576542E-04
              960  -4.15170780E-06  -4.14616079E-06   2.73057907E-07   4.67220070E-06
              961  -3.93493974E-04  -7.01125595E-04   2.12054787E-04   6.86410465E-04
              962  -3.29308561E-04  -2.08833284E-04   4.10298999E-05   3.02849046E-04
              963  -2.74494541E-05  -1.38970645E-05  -1.65631619E-07   2.36396299E-05
              964  -9.42810402E-06  -7.06103765E-06   1.34932222E-07   9.44263229E-06
              965  -1.40589298E-04  -2.19572335E-04   2.92688201E-05   2.09551712E-04
              966   3.07094342E-05  -3.68456123E-04   3.79964731E-05   4.87069592E-05
              967  -2.05182710E-06  -4.85220426E-07  -3.53672078E-08   1.26139389E-06
              968  -3.65821834E-05  -6.19547645E-05   4.72730335E-06   5.51528210E-05
              969  -1.72516263E-06  -3.80546089E-06   2.38578792E-07   2.84389830E-06
              970  -7.26460598E-07  -5.26526037E-07  -2.37079561E-07   3.84131596E-07
              971  -2.56652726E-07  -9.95028202E-08  -4.04347844E-07   3.12003635E-07
              972  -1.14840455E-04  -1.35408394E-04   1.47383216E-05   1.47610481E-04
              973  -4.67044010E-04  -1.54522932E-04   4.40025615E-05   3.28414346E-04
              974  -2.59036756E-08  -4.44747593E-06   1.25269082E-07   7.81049039E-07
              975  -8.84859219E-07  -1.00655632E-06  -1.27647539E-07   8.06549281E-07
              976   3.31484443E-05  -7.07682688E-04   1.00945719E-04   2.34439838E-04
              977  -6.08100891E-07  -6.94828341E-05   5.44056047E-06   2.42722053E-05
              978  -5.53288771E-07  -3.36452217E-06   6.85738399E-08   1.45758668E-06
              979  -1.99051419E-06  -7.97930443E-06   6.43105295E-07   5.11148164E-06
              980  -1.40461880E-05  -1.52734909E-04   1.26642317E-05   6.77514472E-05
              981  -1.96853143E-04  -6.29770220E-04   1.33162714E-04   4.79784416E-04
              982  -1.60018189E-05  -3.71996020E-06  -2.10888174E-06   1.01015830E-05
              983  -6.34600656E-05  -2.66370080E-05  -2.09224936E-06   4.63545039E-05
              984  -5.27233169E-06  -1.76978375E-07  -4.22300263E-06   1.58353237E-06
              985  -7.50434583E-06  -3.31061965E-05   2.41238286E-06   1.99708957E-05
              986  -1.39199125E-04  -1.00629059E-05  -2.76009268E-05   4.55870431E-05
              987  -6.23485107E-07  -1.46449986E-06  -2.23036864E-07   7.35867729E-07
              988  -5.41309532E-07  -1.48498577E-06  -3.79390940E-07   4.08493406E-07
              989   5.06779179E-05  -5.17989101E-04   5.78211329E-05   6.29605565E-05
              990  -9.01562657E-07  -2.06819124E-07  -1.29485068E-06   6.24153586E-07
              991  -2.00921988E-07  -3.05706749E-08  -9.30832698E-07   4.02391777E-07
              992  -3.00070795E-04  -6.35882316E-05   1.55328303E-06   1.65925478E-04
              993  -2.51480674E-06  -1.72069599E-06   6.44191545E-08   2.34889558E-06
              994   3.08370272E-06  -4.15913964E-05   3.79249900E-06   5.62801415E-06
              995   2.89375777E-04  -1.50190387E-03   3.05322697E-04   1.30578061E-04
              996  -6.19615239E-05  -1.04388397E-03   2.28683552E-04   6.06560265E-04
              997  -1.54703466E-05  -1.40028123E-06  -7.41229451E-06   5.47804348E-06
              998   7.79660986E-05  -6.21662941E-04   7.78428730E-05   2.90385105E-05
              999  -5.83028714E-06  -1.98447810E-06  -6.89820354E-07   3.86549345E-06
             1000   9.12442283E-06  -1.51870801E-04   1.27879703E-05   2.15493892E-05
             1001  -3.96943415E-06  -2.03131594E-06   4.86443810E-08   3.07004484E-06
             1002   4.54863357E-06  -5.83573201E-05   5.33399179E-06   8.98328290E-06
             1003   3.19332202E-07  -7.77599780E-06   5.53601865E-07   2.11846964E-06
             1004   8.35038350E-09  -2.06870645E-08  -8.94113228E-08   8.07122476E-08
             1005   7.48140810E-05  -1.25561911E-03   2.64473259E-04   5.20168920E-04
             1006  -1.61270538E-04  -9.89388209E-04   2.53802602E-04   6.94062270E-04
             1007  -7.09469779E-04  -3.63141822E-04   1.51626809E-04   6.16788224E-04
             1008  -4.51829401E-08  -4.10289766E-04   4.27218729E-05   1.30329165E-04
             1009   1.29399950E-05  -3.48544563E-04   3.31529955E-05   8.47222254E-05
             1010  -8.79880588E-07  -3.95848815E-07  -7.76028912E-08   5.77390836E-07
             1011  -8.51468532E-04  -6.67182576E-06   3.34221795E-06   1.40173914E-04
             1012  -1.53309258E-04  -3.41239385E-04   5.24392635E-05   2.72720732E-04
             1013  -1.34734432E-06  -6.98497161E-07  -3.11082928E-08   1.02890681E-06
             1014   2.12875839E-05  -2.72570294E-04   2.68932363E-05   3.41764717E-05
             1015   3.23163331E-05  -5.81314554E-04   6.78516517E-05   1.67326682E-04
             1016   1.37945619E-07  -6.04949355E-06   2.27122911E-07   6.91613877E-07
             1017  -4.20723736E-05   1.26610821E-05  -1.65243346E-05   3.42004910E-06
             1018   3.00161651E-06  -3.25100991E-05   2.86224349E-06   2.29310604E-06
             1019  -3.92159636E-05  -2.52740483E-05   3.96551172E-07   3.64051666E-05
             1020  -1.41140731E-06  -3.23652927E-07  -1.60174778E-07   8.59809347E-07
             1021  -6.45686669E-08  -5.24574446E-08  -3.11618713E-08  -2.18079776E-08
             1022   7.77723130E-09  -3.56910800E-06   1.93684375E-08   3.02420460E-07
             1023  -3.70291928E-05  -3.42205458E-04   3.67450812E-05   1.61485805E-04
             1024  -4.31428589E-07  -1.76770698E-06  -3.83626087E-07   2.64745069E-07
             1025  -3.89769120E-05  -1.03765400E-04   8.15075327E-06   7.38363742E-05
             1026  -6.96237009E-07  -8.59522174E-07  -3.24430516E-07   3.95522278E-07
             1027  -6.00272358E-07  -2.29301395E-06  -1.05746729E-07   1.00284456E-06
             1028   2.51287565E-04  -1.44838239E-03   3.02306318E-04   2.63731432E-04
             1029  -3.74514366E-06  -1.54820725E-06  -1.81747524E-07   2.67664268E-06
             1030  -8.94271361E-05  -1.85369663E-06  -2.51023012E-05   2.93101275E-05
             1031  -3.87309956E-05  -2.38303648E-04   2.35317784E-05   1.27836523E-04
             1032  -4.38919174E-04  -5.67019379E-05   9.54812003E-06   2.02641822E-04
             1033  -1.99395458E-07  -4.95566246E-06   2.35144569E-07   1.53932388E-06
             1034  -1.64909798E-05  -1.34136199E-05   4.18747163E-07   1.76258491E-05
             1035   9.03170003E-05  -8.25874507E-04   1.24282727E-04   1.73812106E-04
             1036  -3.33776581E-04  -1.70161275E-05  -2.72240231E-05   8.14762752E-05
             1037  -6.16238918E-04  -1.93444983E-04   7.02951947E-05   4.02834296E-04
             1038  -1.58474819E-07   4.47716531E-07  -7.23714663E-07   1.96863667E-07
             1039  -6.47304812E-04  -6.32954197E-06  -1.92721964E-05   1.11647940E-04
             1040  -8.88816547E-04  -5.24667812E-05   5.06594042E-05   2.94079044E-04
             1041  -4.06326988E-04  -3.72637238E-04   9.32674011E-05   4.65184858E-04
             1042  -2.92583286E-06  -1.38001542E-05   1.12068631E-06   7.84398981E-06
             1043  -2.55330524E-05  -4.09228051E-05   2.71243357E-06   3.39855396E-05
             1044   2.15311375E-04  -1.23702991E-03   2.30046193E-04   9.85856750E-05
             1045  -7.47423910E-05  -1.50743377E-04   1.44029000E-05   1.26945451E-04
             1046  -2.31044942E-05  -2.26104476E-05   1.26447719E-06   2.61522655E-05
             1047  -6.75061244E-07  -3.00056286E-07  -2.22757549E-07   1.98050131E-07
             1048   7.87351019E-06  -1.89406637E-04   1.67320886E-05   4.72938846E-05
             1049  -5.28100063E-04  -5.78389154E-04   2.06523982E-04   7.02107267E-04
             1050  -3.93343043E-06  -8.24349991E-06   6.81462552E-07   6.62249522E-06
             1051  -5.31566657E-05  -4.80076187E-06  -1.77623169E-05   2.06066743E-05
             1052  -5.23502182E-04  -4.08715307E-04   1.27814375E-04   5.72493416E-04
             1053   3.92195434E-05  -8.66464106E-04   1.47547267E-04   3.28389491E-04
             1054  -1.95948305E-04  -6.84857732E-05   2.74170725E-06   1.39241311E-04
             1055  -3.67495758E-08  -1.82022148E-08  -1.99768763E-07   1.75215604E-07
             1056   1.54362060E-04  -1.13336323E-03   2.10148879E-04   2.68554024E-04
             1057  -7.12394240E-07  -1.30626595E-05   1.02666752E-06   4.96232133E-06
             1058  -1.49330212E-04  -5.40216824E-05   2.25261761E-06   1.10674780E-04
             1059  -3.57994111E-07  -5.91052367E-06   3.62651718E-07   2.32813341E-06


