********************************************************************************
Field Output Report, written Wed Apr 12 15:09:21 2017

Source 1
---------

   ODB: /home/lcharleux/Documents/Programmation/Python/Modules/hardness/doc/tutorials/workdir/indentation_2D.odb
   Step: UNLOADING2
   Frame: Increment     50: Step Time =    1.000

Loc 1 : Element nodal values from source 1 ( Average criteria = 75%, Not averaged across region boundaries )

Output sorted by column "Element Label".

Field Output reported at element nodes for region: I_SAMPLE.Region_1
   Computation algorithm: EXTRAPOLATE_COMPUTE_AVERAGE
   Averaged at nodes
   Averaging regions: ODB_REGIONS

         Element            Node           S.S11           S.S22           S.S33           S.S12
           Label           Label          @Loc 1          @Loc 1          @Loc 1          @Loc 1
-------------------------------------------------------------------------------------------------
              89               1     7.31933E-03     285.848E-06     7.10073E-03     106.792E-06
              89               9     6.05502E-03    -255.088E-06     5.95524E-03    -183.325E-06
              89              52     7.10287E-03    -124.588E-06     6.74283E-03    -18.9239E-06
              89             142     5.83936E-03    -630.037E-06     5.66809E-03    -286.657E-06
              90              51     6.59439E-03    -467.847E-06     6.09337E-03    -298.732E-06
              90              52     7.10287E-03    -124.588E-06     6.74283E-03    -18.9239E-06
              90             142     5.83936E-03    -630.037E-06     5.66809E-03    -286.657E-06
              90             143     5.46252E-03    -936.089E-06     5.21639E-03    -502.065E-06
              91              50     5.97347E-03    -307.502E-06     5.56543E-03    -517.565E-06
              91              51     6.59439E-03    -467.847E-06     6.09337E-03    -298.732E-06
              91             143     5.46252E-03    -936.089E-06     5.21639E-03    -502.065E-06
              91             144     5.14887E-03    -801.074E-06     4.92257E-03    -739.140E-06
              92              49     5.31065E-03    -248.545E-06     5.12785E-03    -629.466E-06
              92              50     5.97347E-03    -307.502E-06     5.56543E-03    -517.565E-06
              92             144     5.14887E-03    -801.074E-06     4.92257E-03    -739.140E-06
              92             145     4.80586E-03    -703.968E-06     4.67971E-03    -971.052E-06
              93              48     4.62634E-03    -249.191E-06     4.75457E-03    -730.614E-06
              93              49     5.31065E-03    -248.545E-06     5.12785E-03    -629.466E-06
              93             145     4.80586E-03    -703.968E-06     4.67971E-03    -971.052E-06
              93             146     4.38056E-03    -730.190E-06     4.42385E-03    -1.20167E-03
              94              47     3.87543E-03    -333.689E-06     4.33377E-03    -881.966E-06
              94              48     4.62634E-03    -249.191E-06     4.75457E-03    -730.614E-06
              94             146     4.38056E-03    -730.190E-06     4.42385E-03    -1.20167E-03
              94             147     3.88432E-03    -805.342E-06     4.13649E-03    -1.44248E-03
              95              46     3.01333E-03    -291.347E-06     3.88920E-03    -1.05043E-03
              95              47     3.87543E-03    -333.689E-06     4.33377E-03    -881.966E-06
              95             147     3.88432E-03    -805.342E-06     4.13649E-03    -1.44248E-03
              95             148     3.32416E-03    -839.724E-06     3.82952E-03    -1.71599E-03
              96              45     2.01078E-03    -396.292E-06     3.33132E-03    -1.24838E-03
              96              46     3.01333E-03    -291.347E-06     3.88920E-03    -1.05043E-03
              96             148     3.32416E-03    -839.724E-06     3.82952E-03    -1.71599E-03
              96             149     2.69288E-03    -919.507E-06     3.47328E-03    -2.00949E-03
              97              44     834.770E-06    -366.909E-06     2.72043E-03    -1.47622E-03
              97              45     2.01078E-03    -396.292E-06     3.33132E-03    -1.24838E-03
              97             149     2.69288E-03    -919.507E-06     3.47328E-03    -2.00949E-03
              97             150     1.99024E-03    -1.00088E-03     3.07511E-03    -2.33941E-03
              98              43    -557.708E-06    -533.696E-06     1.93709E-03    -1.76231E-03
              98              44     834.770E-06    -366.909E-06     2.72043E-03    -1.47622E-03
              98             150     1.99024E-03    -1.00088E-03     3.07511E-03    -2.33941E-03
              98             151     1.24012E-03    -1.07035E-03     2.64424E-03    -2.66666E-03
              99              42    -2.18427E-03    -392.654E-06     1.12263E-03    -2.04761E-03
              99              43    -557.708E-06    -533.696E-06     1.93709E-03    -1.76231E-03
              99             151     1.24012E-03    -1.07035E-03     2.64424E-03    -2.66666E-03
              99             152     467.029E-06    -1.05526E-03     2.21145E-03    -3.00171E-03
             100              41    -4.06801E-03    -685.260E-06     43.4960E-06    -2.38884E-03
             100              42    -2.18427E-03    -392.654E-06     1.12263E-03    -2.04761E-03
             100             152     467.029E-06    -1.05526E-03     2.21145E-03    -3.00171E-03
             100             153    -249.474E-06    -969.241E-06     1.79951E-03    -3.20547E-03
             101              40    -6.11796E-03    -94.7974E-06    -885.289E-06    -2.57532E-03
             101              41    -4.06801E-03    -685.260E-06     43.4960E-06    -2.38884E-03
             101             153    -249.474E-06    -969.241E-06     1.79951E-03    -3.20547E-03
             101             154    -808.043E-06    -334.148E-06     1.58410E-03    -3.21503E-03
             102              39    -8.17178E-03    -399.398E-06    -2.14279E-03    -2.58781E-03
             102              40    -6.11796E-03    -94.7974E-06    -885.289E-06    -2.57532E-03
             102             154    -808.043E-06    -334.148E-06     1.58410E-03    -3.21503E-03
             102             155    -7.15331E-03     867.993E-06     1.64948E-03    -2.49353E-03
             103              38    -9.44053E-03     2.82486E-03    -2.17650E-03    -1.37865E-03
             103              39    -8.17178E-03    -399.398E-06    -2.14279E-03    -2.58781E-03
             103             155    -9.19025E-03     867.993E-06     1.64948E-03    -2.49353E-03
             103             156    -9.19025E-03     5.91085E-03    -3.27066E-03    -306.247E-06
             104               4    -9.69081E-03     7.83935E-03    -1.08234E-03    -102.439E-06
             104              37    -9.69081E-03     10.3672E-03     4.38295E-03     1.15313E-03
             104              38    -9.44053E-03     2.82486E-03    -2.17650E-03    -1.37865E-03
             104             156    -9.69081E-03     5.91085E-03    -1.08234E-03    -306.247E-06
             105               9     6.05502E-03    -255.088E-06     5.95524E-03    -183.325E-06
             105              10     4.21226E-03    -1.82219E-03     4.29674E-03    -340.510E-06
             105             142     5.83936E-03    -630.037E-06     5.66809E-03    -286.657E-06
             105             157     4.25716E-03    -1.91554E-03     4.27029E-03    -463.118E-06
             106             142     5.83936E-03    -630.037E-06     5.66809E-03    -286.657E-06
             106             143     5.46252E-03    -936.089E-06     5.21639E-03    -502.065E-06
             106             157     4.25716E-03    -1.91554E-03     4.27029E-03    -463.118E-06
             106             158     4.28536E-03    -1.98481E-03     4.23143E-03    -704.343E-06
             107             143     5.46252E-03    -936.089E-06     5.21639E-03    -502.065E-06
             107             144     5.14887E-03    -801.074E-06     4.92257E-03    -739.140E-06
             107             158     4.28536E-03    -1.98481E-03     4.23143E-03    -704.343E-06
             107             159     4.25207E-03    -1.92682E-03     4.20214E-03    -980.070E-06
             108             144     5.14887E-03    -801.074E-06     4.92257E-03    -739.140E-06
             108             145     4.80586E-03    -703.968E-06     4.67971E-03    -971.052E-06
             108             159     4.25207E-03    -1.92682E-03     4.20214E-03    -980.070E-06
             108             160     4.21657E-03    -1.87774E-03     4.15953E-03    -1.33408E-03
             109             145     4.80586E-03    -703.968E-06     4.67971E-03    -971.052E-06
             109             146     4.38056E-03    -730.190E-06     4.42385E-03    -1.20167E-03
             109             160     4.21657E-03    -1.87774E-03     4.15953E-03    -1.33408E-03
             109             161     4.17469E-03    -1.89867E-03     4.09979E-03    -1.70470E-03
             110             146     4.38056E-03    -730.190E-06     4.42385E-03    -1.20167E-03
             110             147     3.88432E-03    -805.342E-06     4.13649E-03    -1.44248E-03
             110             161     4.17469E-03    -1.89867E-03     4.09979E-03    -1.70470E-03
             110             162     4.11665E-03    -1.97275E-03     4.03466E-03    -2.05898E-03
             111             147     3.88432E-03    -805.342E-06     4.13649E-03    -1.44248E-03
             111             148     3.32416E-03    -839.724E-06     3.82952E-03    -1.71599E-03
             111             162     4.11665E-03    -1.97275E-03     4.03466E-03    -2.05898E-03
             111             163     4.06560E-03    -2.06239E-03     3.97844E-03    -2.40590E-03
             112             148     3.32416E-03    -839.724E-06     3.82952E-03    -1.71599E-03
             112             149     2.69288E-03    -919.507E-06     3.47328E-03    -2.00949E-03
             112             163     4.06560E-03    -2.06239E-03     3.97844E-03    -2.40590E-03
             112             164     4.05259E-03    -2.14546E-03     3.94444E-03    -2.75548E-03
             113             149     2.69288E-03    -919.507E-06     3.47328E-03    -2.00949E-03
             113             150     1.99024E-03    -1.00088E-03     3.07511E-03    -2.33941E-03
             113             164     4.05259E-03    -2.14546E-03     3.94444E-03    -2.75548E-03
             113             165     4.12231E-03    -2.21968E-03     3.94880E-03    -3.06013E-03
             114             150     1.99024E-03    -1.00088E-03     3.07511E-03    -2.33941E-03
             114             151     1.24012E-03    -1.07035E-03     2.64424E-03    -2.66666E-03
             114             165     4.12231E-03    -2.21968E-03     3.94880E-03    -3.06013E-03
             114             166     4.31363E-03    -2.17459E-03     4.03863E-03    -3.30423E-03
             115             151     1.24012E-03    -1.07035E-03     2.64424E-03    -2.66666E-03
             115             152     467.029E-06    -1.05526E-03     2.21145E-03    -3.00171E-03
             115             166     4.31363E-03    -2.17459E-03     4.03863E-03    -3.30423E-03
             115             167     4.70434E-03    -1.97937E-03     4.25001E-03    -3.39858E-03
             116             152     467.029E-06    -1.05526E-03     2.21145E-03    -3.00171E-03
             116             153    -249.474E-06    -969.241E-06     1.79951E-03    -3.20547E-03
             116             167     4.70434E-03    -1.97937E-03     4.25001E-03    -3.39858E-03
             116             168     5.33149E-03    -1.28211E-03     4.70067E-03    -3.25416E-03
             117             153    -249.474E-06    -969.241E-06     1.79951E-03    -3.20547E-03
             117             154    -808.043E-06    -334.148E-06     1.58410E-03    -3.21503E-03
             117             168     5.33149E-03    -1.28211E-03     4.70067E-03    -3.25416E-03
             117             169     6.25115E-03     108.123E-06     5.46041E-03    -2.68905E-03
             118             154    -808.043E-06    -334.148E-06     1.58410E-03    -3.21503E-03
             118             155     5.06707E-03     867.993E-06     1.64948E-03    -2.49353E-03
             118             169     6.25115E-03     108.123E-06     5.46041E-03    -2.68905E-03
             118             170     7.25477E-03     3.65632E-03     6.87593E-03    -1.44367E-03
             119             155     7.44196E-03     867.993E-06     1.64948E-03    -2.49353E-03
             119             156     7.44196E-03     5.91085E-03     6.71884E-03    -306.247E-06
             119             170     7.25477E-03     3.65632E-03     6.87593E-03    -1.44367E-03
             119             171     7.35580E-03     10.3223E-03     8.85227E-03    -28.9388E-06
             120              36     7.01183E-03     14.2404E-03     9.85695E-03     589.468E-06
             120              37     9.98314E-03     10.3672E-03     4.38295E-03     1.15313E-03
             120             156     9.98314E-03     5.91085E-03     9.84825E-03    -306.247E-06
             120             171     7.35580E-03     10.3223E-03     8.85227E-03    -28.9388E-06
             121              10     4.21226E-03    -1.82219E-03     4.29674E-03    -340.510E-06
             121              11     3.90543E-03    -3.26626E-03     4.00555E-03    -143.367E-06
             121             157     4.25716E-03    -1.91554E-03     4.27029E-03    -463.118E-06
             121             172     3.96791E-03    -3.25898E-03     4.01652E-03    -300.230E-06
             122             157     4.25716E-03    -1.91554E-03     4.27029E-03    -463.118E-06
             122             158     4.28536E-03    -1.98481E-03     4.23143E-03    -704.343E-06
             122             172     3.96791E-03    -3.25898E-03     4.01652E-03    -300.230E-06
             122             173     4.06631E-03    -3.20764E-03     4.04650E-03    -621.781E-06
             123             158     4.28536E-03    -1.98481E-03     4.23143E-03    -704.343E-06
             123             159     4.25207E-03    -1.92682E-03     4.20214E-03    -980.070E-06
             123             173     4.06631E-03    -3.20764E-03     4.04650E-03    -621.781E-06
             123             174     4.11946E-03    -3.18267E-03     4.06626E-03    -944.830E-06
             124             159     4.25207E-03    -1.92682E-03     4.20214E-03    -980.070E-06
             124             160     4.21657E-03    -1.87774E-03     4.15953E-03    -1.33408E-03
             124             174     4.11946E-03    -3.18267E-03     4.06626E-03    -944.830E-06
             124             175     4.17779E-03    -3.21214E-03     4.08106E-03    -1.25622E-03
             125             160     4.21657E-03    -1.87774E-03     4.15953E-03    -1.33408E-03
             125             161     4.17469E-03    -1.89867E-03     4.09979E-03    -1.70470E-03
             125             175     4.17779E-03    -3.21214E-03     4.08106E-03    -1.25622E-03
             125             176     4.28449E-03    -3.22575E-03     4.12460E-03    -1.57546E-03
             126             161     4.17469E-03    -1.89867E-03     4.09979E-03    -1.70470E-03
             126             162     4.11665E-03    -1.97275E-03     4.03466E-03    -2.05898E-03
             126             176     4.28449E-03    -3.22575E-03     4.12460E-03    -1.57546E-03
             126             177     4.44962E-03    -3.25847E-03     4.19431E-03    -1.88041E-03
             127             162     4.11665E-03    -1.97275E-03     4.03466E-03    -2.05898E-03
             127             163     4.06560E-03    -2.06239E-03     3.97844E-03    -2.40590E-03
             127             177     4.44962E-03    -3.25847E-03     4.19431E-03    -1.88041E-03
             127             178     4.66651E-03    -3.29145E-03     4.29626E-03    -2.14603E-03
             128             163     4.06560E-03    -2.06239E-03     3.97844E-03    -2.40590E-03
             128             164     4.05259E-03    -2.14546E-03     3.94444E-03    -2.75548E-03
             128             178     4.66651E-03    -3.29145E-03     4.29626E-03    -2.14603E-03
             128             179     4.95500E-03    -3.28756E-03     4.44745E-03    -2.34501E-03
             129             164     4.05259E-03    -2.14546E-03     3.94444E-03    -2.75548E-03
             129             165     4.12231E-03    -2.21968E-03     3.94880E-03    -3.06013E-03
             129             179     4.95500E-03    -3.28756E-03     4.44745E-03    -2.34501E-03
             129             180     5.32102E-03    -3.16208E-03     4.67333E-03    -2.46072E-03
             130             165     4.12231E-03    -2.21968E-03     3.94880E-03    -3.06013E-03
             130             166     4.31363E-03    -2.17459E-03     4.03863E-03    -3.30423E-03
             130             180     5.32102E-03    -3.16208E-03     4.67333E-03    -2.46072E-03
             130             181     5.77896E-03    -2.87569E-03     4.98727E-03    -2.44512E-03
             131             166     4.31363E-03    -2.17459E-03     4.03863E-03    -3.30423E-03
             131             167     4.70434E-03    -1.97937E-03     4.25001E-03    -3.39858E-03
             131             181     5.77896E-03    -2.87569E-03     4.98727E-03    -2.44512E-03
             131             182     6.29463E-03    -2.19367E-03     5.44228E-03    -2.25940E-03
             132             167     4.70434E-03    -1.97937E-03     4.25001E-03    -3.39858E-03
             132             168     5.33149E-03    -1.28211E-03     4.70067E-03    -3.25416E-03
             132             182     6.29463E-03    -2.19367E-03     5.44228E-03    -2.25940E-03
             132             183     6.81574E-03    -1.00173E-03     6.04338E-03    -1.89528E-03
             133             168     5.33149E-03    -1.28211E-03     4.70067E-03    -3.25416E-03
             133             169     6.25115E-03     108.123E-06     5.46041E-03    -2.68905E-03
             133             183     6.81574E-03    -1.00173E-03     6.04338E-03    -1.89528E-03
             133             184     7.14802E-03     1.29052E-03     6.88174E-03    -1.35439E-03
             134             169     6.25115E-03     108.123E-06     5.46041E-03    -2.68905E-03
             134             170     7.25477E-03     3.65632E-03     6.87593E-03    -1.44367E-03
             134             184     7.14802E-03     1.29052E-03     6.88174E-03    -1.35439E-03
             134             185     6.89387E-03     4.84541E-03     7.83820E-03    -1.18767E-03
             135             170     7.25477E-03     3.65632E-03     6.87593E-03    -1.44367E-03
             135             171     7.35580E-03     10.3223E-03     8.85227E-03    -28.9388E-06
             135             185     6.89387E-03     4.84541E-03     7.83820E-03    -1.18767E-03
             135             186     6.02478E-03     9.98537E-03     8.94707E-03    -2.09740E-03
             136              35     5.47363E-03     13.1845E-03     9.61424E-03    -2.87057E-03
             136              36     7.01183E-03     14.2404E-03     9.85695E-03     589.468E-06
             136             171     7.35580E-03     10.3223E-03     8.85227E-03    -28.9388E-06
             136             186     6.02478E-03     9.98537E-03     8.94707E-03    -2.09740E-03
             137              11     3.90543E-03    -3.26626E-03     4.00555E-03    -143.367E-06
             137              12     3.81504E-03    -4.23929E-03     3.85332E-03    -183.898E-06
             137             172     3.96791E-03    -3.25898E-03     4.01652E-03    -300.230E-06
             137             187     3.81017E-03    -4.29852E-03     3.82933E-03    -275.434E-06
             138             172     3.96791E-03    -3.25898E-03     4.01652E-03    -300.230E-06
             138             173     4.06631E-03    -3.20764E-03     4.04650E-03    -621.781E-06
             138             187     3.81017E-03    -4.29852E-03     3.82933E-03    -275.434E-06
             138             188     3.82867E-03    -4.33642E-03     3.81787E-03    -495.068E-06
             139             173     4.06631E-03    -3.20764E-03     4.04650E-03    -621.781E-06
             139             174     4.11946E-03    -3.18267E-03     4.06626E-03    -944.830E-06
             139             188     3.82867E-03    -4.33642E-03     3.81787E-03    -495.068E-06
             139             189     3.91710E-03    -4.30804E-03     3.86048E-03    -749.041E-06
             140             174     4.11946E-03    -3.18267E-03     4.06626E-03    -944.830E-06
             140             175     4.17779E-03    -3.21214E-03     4.08106E-03    -1.25622E-03
             140             189     3.91710E-03    -4.30804E-03     3.86048E-03    -749.041E-06
             140             190     4.04880E-03    -4.30342E-03     3.92558E-03    -991.533E-06
             141             175     4.17779E-03    -3.21214E-03     4.08106E-03    -1.25622E-03
             141             176     4.28449E-03    -3.22575E-03     4.12460E-03    -1.57546E-03
             141             190     4.04880E-03    -4.30342E-03     3.92558E-03    -991.533E-06
             141             191     4.20363E-03    -4.30067E-03     4.00965E-03    -1.20585E-03
             142             176     4.28449E-03    -3.22575E-03     4.12460E-03    -1.57546E-03
             142             177     4.44962E-03    -3.25847E-03     4.19431E-03    -1.88041E-03
             142             191     4.20363E-03    -4.30067E-03     4.00965E-03    -1.20585E-03
             142             192     4.39465E-03    -4.26186E-03     4.12508E-03    -1.39620E-03
             143             177     4.44962E-03    -3.25847E-03     4.19431E-03    -1.88041E-03
             143             178     4.66651E-03    -3.29145E-03     4.29626E-03    -2.14603E-03
             143             192     4.39465E-03    -4.26186E-03     4.12508E-03    -1.39620E-03
             143             193     4.63368E-03    -4.18137E-03     4.27612E-03    -1.54544E-03
             144             178     4.66651E-03    -3.29145E-03     4.29626E-03    -2.14603E-03
             144             179     4.95500E-03    -3.28756E-03     4.44745E-03    -2.34501E-03
             144             193     4.63368E-03    -4.18137E-03     4.27612E-03    -1.54544E-03
             144             194     4.89923E-03    -3.99901E-03     4.47198E-03    -1.63675E-03
             145             179     4.95500E-03    -3.28756E-03     4.44745E-03    -2.34501E-03
             145             180     5.32102E-03    -3.16208E-03     4.67333E-03    -2.46072E-03
             145             194     4.89923E-03    -3.99901E-03     4.47198E-03    -1.63675E-03
             145             195     5.17858E-03    -3.68108E-03     4.71394E-03    -1.65838E-03
             146             180     5.32102E-03    -3.16208E-03     4.67333E-03    -2.46072E-03
             146             181     5.77896E-03    -2.87569E-03     4.98727E-03    -2.44512E-03
             146             195     5.17858E-03    -3.68108E-03     4.71394E-03    -1.65838E-03
             146             196     5.42770E-03    -3.09540E-03     5.01974E-03    -1.60773E-03
             147             181     5.77896E-03    -2.87569E-03     4.98727E-03    -2.44512E-03
             147             182     6.29463E-03    -2.19367E-03     5.44228E-03    -2.25940E-03
             147             196     5.42770E-03    -3.09540E-03     5.01974E-03    -1.60773E-03
             147             197     5.59249E-03    -2.20025E-03     5.37315E-03    -1.52692E-03
             148             182     6.29463E-03    -2.19367E-03     5.44228E-03    -2.25940E-03
             148             183     6.81574E-03    -1.00173E-03     6.04338E-03    -1.89528E-03
             148             197     5.59249E-03    -2.20025E-03     5.37315E-03    -1.52692E-03
             148             198     5.57892E-03    -772.405E-06     5.79524E-03    -1.46232E-03
             149             183     6.81574E-03    -1.00173E-03     6.04338E-03    -1.89528E-03
             149             184     7.14802E-03     1.29052E-03     6.88174E-03    -1.35439E-03
             149             198     5.57892E-03    -772.405E-06     5.79524E-03    -1.46232E-03
             149             199     5.26709E-03     1.12716E-03     6.20992E-03    -1.71503E-03
             150             184     7.14802E-03     1.29052E-03     6.88174E-03    -1.35439E-03
             150             185     6.89387E-03     4.84541E-03     7.83820E-03    -1.18767E-03
             150             199     5.26709E-03     1.12716E-03     6.20992E-03    -1.71503E-03
             150             200     4.81174E-03     3.43504E-03     6.63208E-03    -2.44194E-03
             151             185     6.89387E-03     4.84541E-03     7.83820E-03    -1.18767E-03
             151             186     6.02478E-03     9.98537E-03     8.94707E-03    -2.09740E-03
             151             200     4.81174E-03     3.43504E-03     6.63208E-03    -2.44194E-03
             151             201     4.33612E-03     5.79985E-03     6.99841E-03    -4.03190E-03
             152              34     4.08326E-03     6.82043E-03     7.11356E-03    -5.16902E-03
             152              35     5.47363E-03     13.1845E-03     9.61424E-03    -2.87057E-03
             152             186     6.02478E-03     9.98537E-03     8.94707E-03    -2.09740E-03
             152             201     4.33612E-03     5.79985E-03     6.99841E-03    -4.03190E-03
             153              12     3.81504E-03    -4.23929E-03     3.85332E-03    -183.898E-06
             153              13     3.28453E-03    -5.14747E-03     3.29919E-03    -121.763E-06
             153             187     3.81017E-03    -4.29852E-03     3.82933E-03    -275.434E-06
             153             202     3.32709E-03    -5.15408E-03     3.31766E-03    -210.767E-06
             154             187     3.81017E-03    -4.29852E-03     3.82933E-03    -275.434E-06
             154             188     3.82867E-03    -4.33642E-03     3.81787E-03    -495.068E-06
             154             202     3.32709E-03    -5.15408E-03     3.31766E-03    -210.767E-06
             154             203     3.39916E-03    -5.16003E-03     3.35633E-03    -372.671E-06
             155             188     3.82867E-03    -4.33642E-03     3.81787E-03    -495.068E-06
             155             189     3.91710E-03    -4.30804E-03     3.86048E-03    -749.041E-06
             155             203     3.39916E-03    -5.16003E-03     3.35633E-03    -372.671E-06
             155             204     3.45790E-03    -5.14418E-03     3.40045E-03    -528.836E-06
             156             189     3.91710E-03    -4.30804E-03     3.86048E-03    -749.041E-06
             156             190     4.04880E-03    -4.30342E-03     3.92558E-03    -991.533E-06
             156             204     3.45790E-03    -5.14418E-03     3.40045E-03    -528.836E-06
             156             205     3.54752E-03    -5.10779E-03     3.46095E-03    -690.413E-06
             157             190     4.04880E-03    -4.30342E-03     3.92558E-03    -991.533E-06
             157             191     4.20363E-03    -4.30067E-03     4.00965E-03    -1.20585E-03
             157             205     3.54752E-03    -5.10779E-03     3.46095E-03    -690.413E-06
             157             206     3.67200E-03    -5.04526E-03     3.54385E-03    -841.153E-06
             158             191     4.20363E-03    -4.30067E-03     4.00965E-03    -1.20585E-03
             158             192     4.39465E-03    -4.26186E-03     4.12508E-03    -1.39620E-03
             158             206     3.67200E-03    -5.04526E-03     3.54385E-03    -841.153E-06
             158             207     3.81321E-03    -4.94671E-03     3.64658E-03    -968.627E-06
             159             192     4.39465E-03    -4.26186E-03     4.12508E-03    -1.39620E-03
             159             193     4.63368E-03    -4.18137E-03     4.27612E-03    -1.54544E-03
             159             207     3.81321E-03    -4.94671E-03     3.64658E-03    -968.627E-06
             159             208     3.95248E-03    -4.77011E-03     3.77233E-03    -1.07503E-03
             160             193     4.63368E-03    -4.18137E-03     4.27612E-03    -1.54544E-03
             160             194     4.89923E-03    -3.99901E-03     4.47198E-03    -1.63675E-03
             160             208     3.95248E-03    -4.77011E-03     3.77233E-03    -1.07503E-03
             160             209     4.08354E-03    -4.49954E-03     3.91930E-03    -1.16775E-03
             161             194     4.89923E-03    -3.99901E-03     4.47198E-03    -1.63675E-03
             161             195     5.17858E-03    -3.68108E-03     4.71394E-03    -1.65838E-03
             161             209     4.08354E-03    -4.49954E-03     3.91930E-03    -1.16775E-03
             161             210     4.17358E-03    -4.06806E-03     4.09170E-03    -1.25312E-03
             162             195     5.17858E-03    -3.68108E-03     4.71394E-03    -1.65838E-03
             162             196     5.42770E-03    -3.09540E-03     5.01974E-03    -1.60773E-03
             162             210     4.17358E-03    -4.06806E-03     4.09170E-03    -1.25312E-03
             162             211     4.19155E-03    -3.47108E-03     4.27375E-03    -1.37489E-03
             163             196     5.42770E-03    -3.09540E-03     5.01974E-03    -1.60773E-03
             163             197     5.59249E-03    -2.20025E-03     5.37315E-03    -1.52692E-03
             163             211     4.19155E-03    -3.47108E-03     4.27375E-03    -1.37489E-03
             163             212     4.10271E-03    -2.62124E-03     4.47222E-03    -1.56627E-03
             164             197     5.59249E-03    -2.20025E-03     5.37315E-03    -1.52692E-03
             164             198     5.57892E-03    -772.405E-06     5.79524E-03    -1.46232E-03
             164             212     4.10271E-03    -2.62124E-03     4.47222E-03    -1.56627E-03
             164             213     3.86939E-03    -1.58811E-03     4.64606E-03    -1.97251E-03
             165             198     5.57892E-03    -772.405E-06     5.79524E-03    -1.46232E-03
             165             199     5.26709E-03     1.12716E-03     6.20992E-03    -1.71503E-03
             165             213     3.86939E-03    -1.58811E-03     4.64606E-03    -1.97251E-03
             165             214     3.58060E-03    -414.972E-06     4.80643E-03    -2.60470E-03
             166             199     5.26709E-03     1.12716E-03     6.20992E-03    -1.71503E-03
             166             200     4.81174E-03     3.43504E-03     6.63208E-03    -2.44194E-03
             166             214     3.58060E-03    -414.972E-06     4.80643E-03    -2.60470E-03
             166             215     3.18249E-03     773.639E-06     4.90181E-03    -3.61831E-03
             167             200     4.81174E-03     3.43504E-03     6.63208E-03    -2.44194E-03
             167             201     4.33612E-03     5.79985E-03     6.99841E-03    -4.03190E-03
             167             215     3.18249E-03     773.639E-06     4.90181E-03    -3.61831E-03
             167             216     2.82351E-03     1.46788E-03     4.83618E-03    -5.02969E-03
             168              33     2.72151E-03     1.64667E-03     4.77287E-03    -5.76704E-03
             168              34     4.08326E-03     6.82043E-03     7.11356E-03    -5.16902E-03
             168             201     4.33612E-03     5.79985E-03     6.99841E-03    -4.03190E-03
             168             216     2.82351E-03     1.46788E-03     4.83618E-03    -5.02969E-03
             169              13     3.28453E-03    -5.14747E-03     3.29919E-03    -121.763E-06
             169              14     2.59553E-03    -5.76249E-03     2.59659E-03    -85.7345E-06
             169             202     3.32709E-03    -5.15408E-03     3.31766E-03    -210.767E-06
             169             217     2.59374E-03    -5.76655E-03     2.59339E-03    -133.596E-06
             170             202     3.32709E-03    -5.15408E-03     3.31766E-03    -210.767E-06
             170             203     3.39916E-03    -5.16003E-03     3.35633E-03    -372.671E-06
             170             217     2.59374E-03    -5.76655E-03     2.59339E-03    -133.596E-06
             170             218     2.61105E-03    -5.75215E-03     2.60241E-03    -250.615E-06
             171             203     3.39916E-03    -5.16003E-03     3.35633E-03    -372.671E-06
             171             204     3.45790E-03    -5.14418E-03     3.40045E-03    -528.836E-06
             171             218     2.61105E-03    -5.75215E-03     2.60241E-03    -250.615E-06
             171             219     2.66426E-03    -5.71932E-03     2.63442E-03    -376.233E-06
             172             204     3.45790E-03    -5.14418E-03     3.40045E-03    -528.836E-06
             172             205     3.54752E-03    -5.10779E-03     3.46095E-03    -690.413E-06
             172             219     2.66426E-03    -5.71932E-03     2.63442E-03    -376.233E-06
             172             220     2.72218E-03    -5.67160E-03     2.67752E-03    -491.105E-06
             173             205     3.54752E-03    -5.10779E-03     3.46095E-03    -690.413E-06
             173             206     3.67200E-03    -5.04526E-03     3.54385E-03    -841.153E-06
             173             220     2.72218E-03    -5.67160E-03     2.67752E-03    -491.105E-06
             173             221     2.78114E-03    -5.59179E-03     2.73073E-03    -607.801E-06
             174             206     3.67200E-03    -5.04526E-03     3.54385E-03    -841.153E-06
             174             207     3.81321E-03    -4.94671E-03     3.64658E-03    -968.627E-06
             174             221     2.78114E-03    -5.59179E-03     2.73073E-03    -607.801E-06
             174             222     2.84015E-03    -5.46433E-03     2.79580E-03    -730.086E-06
             175             207     3.81321E-03    -4.94671E-03     3.64658E-03    -968.627E-06
             175             208     3.95248E-03    -4.77011E-03     3.77233E-03    -1.07503E-03
             175             222     2.84015E-03    -5.46433E-03     2.79580E-03    -730.086E-06
             175             223     2.89101E-03    -5.28608E-03     2.86914E-03    -864.633E-06
             176             208     3.95248E-03    -4.77011E-03     3.77233E-03    -1.07503E-03
             176             209     4.08354E-03    -4.49954E-03     3.91930E-03    -1.16775E-03
             176             223     2.89101E-03    -5.28608E-03     2.86914E-03    -864.633E-06
             176             224     2.91210E-03    -5.02171E-03     2.95143E-03    -1.01998E-03
             177             209     4.08354E-03    -4.49954E-03     3.91930E-03    -1.16775E-03
             177             210     4.17358E-03    -4.06806E-03     4.09170E-03    -1.25312E-03
             177             224     2.91210E-03    -5.02171E-03     2.95143E-03    -1.01998E-03
             177             225     2.89359E-03    -4.67877E-03     3.03340E-03    -1.23180E-03
             178             210     4.17358E-03    -4.06806E-03     4.09170E-03    -1.25312E-03
             178             211     4.19155E-03    -3.47108E-03     4.27375E-03    -1.37489E-03
             178             225     2.89359E-03    -4.67877E-03     3.03340E-03    -1.23180E-03
             178             226     2.82531E-03    -4.22252E-03     3.11876E-03    -1.51595E-03
             179             211     4.19155E-03    -3.47108E-03     4.27375E-03    -1.37489E-03
             179             212     4.10271E-03    -2.62124E-03     4.47222E-03    -1.56627E-03
             179             226     2.82531E-03    -4.22252E-03     3.11876E-03    -1.51595E-03
             179             227     2.69401E-03    -3.69897E-03     3.18668E-03    -1.94617E-03
             180             212     4.10271E-03    -2.62124E-03     4.47222E-03    -1.56627E-03
             180             213     3.86939E-03    -1.58811E-03     4.64606E-03    -1.97251E-03
             180             227     2.69401E-03    -3.69897E-03     3.18668E-03    -1.94617E-03
             180             228     2.54684E-03    -3.11919E-03     3.24825E-03    -2.51377E-03
             181             213     3.86939E-03    -1.58811E-03     4.64606E-03    -1.97251E-03
             181             214     3.58060E-03    -414.972E-06     4.80643E-03    -2.60470E-03
             181             228     2.54684E-03    -3.11919E-03     3.24825E-03    -2.51377E-03
             181             229     2.33373E-03    -2.52769E-03     3.27619E-03    -3.30898E-03
             182             214     3.58060E-03    -414.972E-06     4.80643E-03    -2.60470E-03
             182             215     3.18249E-03     773.639E-06     4.90181E-03    -3.61831E-03
             182             229     2.33373E-03    -2.52769E-03     3.27619E-03    -3.30898E-03
             182             230     2.19387E-03    -2.11696E-03     3.26126E-03    -4.31022E-03
             183             215     3.18249E-03     773.639E-06     4.90181E-03    -3.61831E-03
             183             216     2.82351E-03     1.46788E-03     4.83618E-03    -5.02969E-03
             183             230     2.19387E-03    -2.11696E-03     3.26126E-03    -4.31022E-03
             183             231     2.22647E-03    -1.78029E-03     3.27855E-03    -5.35954E-03
             184              32     2.25736E-03    -1.59952E-03     3.29760E-03    -5.90833E-03
             184              33     2.72151E-03     1.64667E-03     4.77287E-03    -5.76704E-03
             184             216     2.82351E-03     1.46788E-03     4.83618E-03    -5.02969E-03
             184             231     2.22647E-03    -1.78029E-03     3.27855E-03    -5.35954E-03
             185              14     2.59553E-03    -5.76249E-03     2.59659E-03    -85.7345E-06
             185              15     1.60882E-03    -6.19838E-03     1.60534E-03    -60.8648E-06
             185             217     2.59374E-03    -5.76655E-03     2.59339E-03    -133.596E-06
             185             232     1.61939E-03    -6.19493E-03     1.61173E-03    -107.702E-06
             186             217     2.59374E-03    -5.76655E-03     2.59339E-03    -133.596E-06
             186             218     2.61105E-03    -5.75215E-03     2.60241E-03    -250.615E-06
             186             232     1.61939E-03    -6.19493E-03     1.61173E-03    -107.702E-06
             186             233     1.63612E-03    -6.18563E-03     1.62415E-03    -194.145E-06
             187             218     2.61105E-03    -5.75215E-03     2.60241E-03    -250.615E-06
             187             219     2.66426E-03    -5.71932E-03     2.63442E-03    -376.233E-06
             187             233     1.63612E-03    -6.18563E-03     1.62415E-03    -194.145E-06
             187             234     1.64557E-03    -6.15877E-03     1.63819E-03    -288.259E-06
             188             219     2.66426E-03    -5.71932E-03     2.63442E-03    -376.233E-06
             188             220     2.72218E-03    -5.67160E-03     2.67752E-03    -491.105E-06
             188             234     1.64557E-03    -6.15877E-03     1.63819E-03    -288.259E-06
             188             235     1.66433E-03    -6.11654E-03     1.65757E-03    -398.220E-06
             189             220     2.72218E-03    -5.67160E-03     2.67752E-03    -491.105E-06
             189             221     2.78114E-03    -5.59179E-03     2.73073E-03    -607.801E-06
             189             235     1.66433E-03    -6.11654E-03     1.65757E-03    -398.220E-06
             189             236     1.68302E-03    -6.05615E-03     1.68118E-03    -517.620E-06
             190             221     2.78114E-03    -5.59179E-03     2.73073E-03    -607.801E-06
             190             222     2.84015E-03    -5.46433E-03     2.79580E-03    -730.086E-06
             190             236     1.68302E-03    -6.05615E-03     1.68118E-03    -517.620E-06
             190             237     1.69314E-03    -5.97209E-03     1.70676E-03    -658.852E-06
             191             222     2.84015E-03    -5.46433E-03     2.79580E-03    -730.086E-06
             191             223     2.89101E-03    -5.28608E-03     2.86914E-03    -864.633E-06
             191             237     1.69314E-03    -5.97209E-03     1.70676E-03    -658.852E-06
             191             238     1.68854E-03    -5.85128E-03     1.73446E-03    -830.310E-06
             192             223     2.89101E-03    -5.28608E-03     2.86914E-03    -864.633E-06
             192             224     2.91210E-03    -5.02171E-03     2.95143E-03    -1.01998E-03
             192             238     1.68854E-03    -5.85128E-03     1.73446E-03    -830.310E-06
             192             239     1.66842E-03    -5.70370E-03     1.75964E-03    -1.05563E-03
             193             224     2.91210E-03    -5.02171E-03     2.95143E-03    -1.01998E-03
             193             225     2.89359E-03    -4.67877E-03     3.03340E-03    -1.23180E-03
             193             239     1.66842E-03    -5.70370E-03     1.75964E-03    -1.05563E-03
             193             240     1.62890E-03    -5.51505E-03     1.78446E-03    -1.34001E-03
             194             225     2.89359E-03    -4.67877E-03     3.03340E-03    -1.23180E-03
             194             226     2.82531E-03    -4.22252E-03     3.11876E-03    -1.51595E-03
             194             240     1.62890E-03    -5.51505E-03     1.78446E-03    -1.34001E-03
             194             241     1.56650E-03    -5.31344E-03     1.79880E-03    -1.72692E-03
             195             226     2.82531E-03    -4.22252E-03     3.11876E-03    -1.51595E-03
             195             227     2.69401E-03    -3.69897E-03     3.18668E-03    -1.94617E-03
             195             241     1.56650E-03    -5.31344E-03     1.79880E-03    -1.72692E-03
             195             242     1.50820E-03    -5.10071E-03     1.81133E-03    -2.20770E-03
             196             227     2.69401E-03    -3.69897E-03     3.18668E-03    -1.94617E-03
             196             228     2.54684E-03    -3.11919E-03     3.24825E-03    -2.51377E-03
             196             242     1.50820E-03    -5.10071E-03     1.81133E-03    -2.20770E-03
             196             243     1.42530E-03    -4.90012E-03     1.80765E-03    -2.83821E-03
             197             228     2.54684E-03    -3.11919E-03     3.24825E-03    -2.51377E-03
             197             229     2.33373E-03    -2.52769E-03     3.27619E-03    -3.30898E-03
             197             243     1.42530E-03    -4.90012E-03     1.80765E-03    -2.83821E-03
             197             244     1.41016E-03    -4.78752E-03     1.79708E-03    -3.59690E-03
             198             229     2.33373E-03    -2.52769E-03     3.27619E-03    -3.30898E-03
             198             230     2.19387E-03    -2.11696E-03     3.26126E-03    -4.31022E-03
             198             244     1.41016E-03    -4.78752E-03     1.79708E-03    -3.59690E-03
             198             245     1.42413E-03    -4.66887E-03     1.80103E-03    -4.44503E-03
             199             230     2.19387E-03    -2.11696E-03     3.26126E-03    -4.31022E-03
             199             231     2.22647E-03    -1.78029E-03     3.27855E-03    -5.35954E-03
             199             245     1.42413E-03    -4.66887E-03     1.80103E-03    -4.44503E-03
             199             246     1.36185E-03    -4.62727E-03     1.76199E-03    -5.44483E-03
             200              31     1.32658E-03    -4.66421E-03     1.72428E-03    -5.97178E-03
             200              32     2.25736E-03    -1.59952E-03     3.29760E-03    -5.90833E-03
             200             231     2.22647E-03    -1.78029E-03     3.27855E-03    -5.35954E-03
             200             246     1.36185E-03    -4.62727E-03     1.76199E-03    -5.44483E-03
             201               2     444.386E-06    -6.57478E-03     439.680E-06    -36.4734E-06
             201              15     1.60882E-03    -6.19838E-03     1.60534E-03    -60.8648E-06
             201              16     432.695E-06    -6.57824E-03     432.631E-06    -85.0692E-06
             201             232     1.61939E-03    -6.19493E-03     1.61173E-03    -107.702E-06
             202              16     432.695E-06    -6.57824E-03     432.631E-06    -85.0692E-06
             202              17     428.535E-06    -6.57461E-03     428.895E-06    -174.971E-06
             202             232     1.61939E-03    -6.19493E-03     1.61173E-03    -107.702E-06
             202             233     1.63612E-03    -6.18563E-03     1.62415E-03    -194.145E-06
             203              17     428.535E-06    -6.57461E-03     428.895E-06    -174.971E-06
             203              18     432.478E-06    -6.57557E-03     428.895E-06    -270.889E-06
             203             233     1.63612E-03    -6.18563E-03     1.62415E-03    -194.145E-06
             203             234     1.64557E-03    -6.15877E-03     1.63819E-03    -288.259E-06
             204              18     432.478E-06    -6.57557E-03     428.895E-06    -270.889E-06
             204              19     429.171E-06    -6.57354E-03     428.346E-06    -377.131E-06
             204             234     1.64557E-03    -6.15877E-03     1.63819E-03    -288.259E-06
             204             235     1.66433E-03    -6.11654E-03     1.65757E-03    -398.220E-06
             205              19     429.171E-06    -6.57354E-03     428.346E-06    -377.131E-06
             205              20     421.094E-06    -6.56961E-03     425.693E-06    -509.692E-06
             205             235     1.66433E-03    -6.11654E-03     1.65757E-03    -398.220E-06
             205             236     1.68302E-03    -6.05615E-03     1.68118E-03    -517.620E-06
             206              20     421.094E-06    -6.56961E-03     425.693E-06    -509.692E-06
             206              21     411.896E-06    -6.56508E-03     421.717E-06    -667.101E-06
             206             236     1.68302E-03    -6.05615E-03     1.68118E-03    -517.620E-06
             206             237     1.69314E-03    -5.97209E-03     1.70676E-03    -658.852E-06
             207              21     411.896E-06    -6.56508E-03     421.717E-06    -667.101E-06
             207              22     393.251E-06    -6.56159E-03     413.350E-06    -868.517E-06
             207             237     1.69314E-03    -5.97209E-03     1.70676E-03    -658.852E-06
             207             238     1.68854E-03    -5.85128E-03     1.73446E-03    -830.310E-06
             208              22     393.251E-06    -6.56159E-03     413.350E-06    -868.517E-06
             208              23     373.747E-06    -6.56393E-03     401.811E-06    -1.11333E-03
             208             238     1.68854E-03    -5.85128E-03     1.73446E-03    -830.310E-06
             208             239     1.66842E-03    -5.70370E-03     1.75964E-03    -1.05563E-03
             209              23     373.747E-06    -6.56393E-03     401.811E-06    -1.11333E-03
             209              24     345.320E-06    -6.57487E-03     384.179E-06    -1.43132E-03
             209             239     1.66842E-03    -5.70370E-03     1.75964E-03    -1.05563E-03
             209             240     1.62890E-03    -5.51505E-03     1.78446E-03    -1.34001E-03
             210              24     345.320E-06    -6.57487E-03     384.179E-06    -1.43132E-03
             210              25     328.914E-06    -6.61931E-03     360.502E-06    -1.81647E-03
             210             240     1.62890E-03    -5.51505E-03     1.78446E-03    -1.34001E-03
             210             241     1.56650E-03    -5.31344E-03     1.79880E-03    -1.72692E-03
             211              25     328.914E-06    -6.61931E-03     360.502E-06    -1.81647E-03
             211              26     311.301E-06    -6.68126E-03     332.990E-06    -2.29501E-03
             211             241     1.56650E-03    -5.31344E-03     1.79880E-03    -1.72692E-03
             211             242     1.50820E-03    -5.10071E-03     1.81133E-03    -2.20770E-03
             212              26     311.301E-06    -6.68126E-03     332.990E-06    -2.29501E-03
             212              27     324.138E-06    -6.83262E-03     291.953E-06    -2.87802E-03
             212             242     1.50820E-03    -5.10071E-03     1.81133E-03    -2.20770E-03
             212             243     1.42530E-03    -4.90012E-03     1.80765E-03    -2.83821E-03
             213              27     324.138E-06    -6.83262E-03     291.953E-06    -2.87802E-03
             213              28     376.644E-06    -6.99377E-03     267.104E-06    -3.52680E-03
             213             243     1.42530E-03    -4.90012E-03     1.80765E-03    -2.83821E-03
             213             244     1.41016E-03    -4.78752E-03     1.79708E-03    -3.59690E-03
             214              28     376.644E-06    -6.99377E-03     267.104E-06    -3.52680E-03
             214              29     378.648E-06    -7.26430E-03     201.418E-06    -4.34901E-03
             214             244     1.41016E-03    -4.78752E-03     1.79708E-03    -3.59690E-03
             214             245     1.42413E-03    -4.66887E-03     1.80103E-03    -4.44503E-03
             215              29     378.648E-06    -7.26430E-03     201.418E-06    -4.34901E-03
             215              30     582.452E-06    -7.56741E-03     198.518E-06    -5.27502E-03
             215             245     1.42413E-03    -4.66887E-03     1.80103E-03    -4.44503E-03
             215             246     1.36185E-03    -4.62727E-03     1.76199E-03    -5.44483E-03
             216               3     795.986E-06    -7.64311E-03     257.754E-06    -5.73609E-03
             216              30     582.452E-06    -7.56741E-03     198.518E-06    -5.27502E-03
             216              31     1.32658E-03    -4.66421E-03     1.72428E-03    -5.97178E-03
             216             246     1.36185E-03    -4.62727E-03     1.76199E-03    -5.44483E-03
             217               2     444.386E-06    -6.57478E-03     439.680E-06    -36.4734E-06
             217              16     432.695E-06    -6.57824E-03     432.631E-06    -85.0692E-06
             217              53    -976.503E-06    -7.00732E-03    -979.739E-06    -62.0952E-06
             217             247    -975.972E-06    -7.01392E-03    -980.352E-06    -96.4858E-06
             218              16     432.695E-06    -6.57824E-03     432.631E-06    -85.0692E-06
             218              17     428.535E-06    -6.57461E-03     428.895E-06    -174.971E-06
             218             247    -975.972E-06    -7.01392E-03    -980.352E-06    -96.4858E-06
             218             248    -981.183E-06    -7.03865E-03    -986.828E-06    -177.605E-06
             219              17     428.535E-06    -6.57461E-03     428.895E-06    -174.971E-06
             219              18     432.478E-06    -6.57557E-03     428.895E-06    -270.889E-06
             219             248    -981.183E-06    -7.03865E-03    -986.828E-06    -177.605E-06
             219             249    -990.280E-06    -7.07755E-03    -998.481E-06    -275.327E-06
             220              18     432.478E-06    -6.57557E-03     428.895E-06    -270.889E-06
             220              19     429.171E-06    -6.57354E-03     428.346E-06    -377.131E-06
             220             249    -990.280E-06    -7.07755E-03    -998.481E-06    -275.327E-06
             220             250    -999.609E-06    -7.13554E-03    -1.01501E-03    -390.493E-06
             221              19     429.171E-06    -6.57354E-03     428.346E-06    -377.131E-06
             221              20     421.094E-06    -6.56961E-03     425.693E-06    -509.692E-06
             221             250    -999.609E-06    -7.13554E-03    -1.01501E-03    -390.493E-06
             221             251    -1.01054E-03    -7.21464E-03    -1.03666E-03    -524.421E-06
             222              20     421.094E-06    -6.56961E-03     425.693E-06    -509.692E-06
             222              21     411.896E-06    -6.56508E-03     421.717E-06    -667.101E-06
             222             251    -1.01054E-03    -7.21464E-03    -1.03666E-03    -524.421E-06
             222             252    -1.02391E-03    -7.31813E-03    -1.06444E-03    -688.157E-06
             223              21     411.896E-06    -6.56508E-03     421.717E-06    -667.101E-06
             223              22     393.251E-06    -6.56159E-03     413.350E-06    -868.517E-06
             223             252    -1.02391E-03    -7.31813E-03    -1.06444E-03    -688.157E-06
             223             253    -1.03461E-03    -7.45211E-03    -1.09805E-03    -884.056E-06
             224              22     393.251E-06    -6.56159E-03     413.350E-06    -868.517E-06
             224              23     373.747E-06    -6.56393E-03     401.811E-06    -1.11333E-03
             224             253    -1.03461E-03    -7.45211E-03    -1.09805E-03    -884.056E-06
             224             254    -1.04370E-03    -7.62260E-03    -1.13875E-03    -1.12598E-03
             225              23     373.747E-06    -6.56393E-03     401.811E-06    -1.11333E-03
             225              24     345.320E-06    -6.57487E-03     384.179E-06    -1.43132E-03
             225             254    -1.04370E-03    -7.62260E-03    -1.13875E-03    -1.12598E-03
             225             255    -1.04181E-03    -7.84179E-03    -1.18614E-03    -1.41379E-03
             226              24     345.320E-06    -6.57487E-03     384.179E-06    -1.43132E-03
             226              25     328.914E-06    -6.61931E-03     360.502E-06    -1.81647E-03
             226             255    -1.04181E-03    -7.84179E-03    -1.18614E-03    -1.41379E-03
             226             256    -1.03210E-03    -8.11310E-03    -1.24084E-03    -1.76453E-03
             227              25     328.914E-06    -6.61931E-03     360.502E-06    -1.81647E-03
             227              26     311.301E-06    -6.68126E-03     332.990E-06    -2.29501E-03
             227             256    -1.03210E-03    -8.11310E-03    -1.24084E-03    -1.76453E-03
             227             257    -997.956E-06    -8.46272E-03    -1.30385E-03    -2.17989E-03
             228              26     311.301E-06    -6.68126E-03     332.990E-06    -2.29501E-03
             228              27     324.138E-06    -6.83262E-03     291.953E-06    -2.87802E-03
             228             257    -997.956E-06    -8.46272E-03    -1.30385E-03    -2.17989E-03
             228             258    -946.425E-06    -8.87642E-03    -1.37117E-03    -2.66476E-03
             229              27     324.138E-06    -6.83262E-03     291.953E-06    -2.87802E-03
             229              28     376.644E-06    -6.99377E-03     267.104E-06    -3.52680E-03
             229             258    -946.425E-06    -8.87642E-03    -1.37117E-03    -2.66476E-03
             229             259    -873.000E-06    -9.40395E-03    -1.45469E-03    -3.25259E-03
             230              28     376.644E-06    -6.99377E-03     267.104E-06    -3.52680E-03
             230              29     378.648E-06    -7.26430E-03     201.418E-06    -4.34901E-03
             230             259    -873.000E-06    -9.40395E-03    -1.45469E-03    -3.25259E-03
             230             260    -730.784E-06    -10.0253E-03    -1.53110E-03    -3.91213E-03
             231              29     378.648E-06    -7.26430E-03     201.418E-06    -4.34901E-03
             231              30     582.452E-06    -7.56741E-03     198.518E-06    -5.27502E-03
             231             260    -730.784E-06    -10.0253E-03    -1.53110E-03    -3.91213E-03
             231             261    -616.257E-06    -10.7846E-03    -1.64127E-03    -4.70199E-03
             232               3     795.986E-06    -7.64311E-03     257.754E-06    -5.73609E-03
             232              30     582.452E-06    -7.56741E-03     198.518E-06    -5.27502E-03
             232              97    -588.942E-06    -11.2359E-03    -1.72300E-03    -5.14772E-03
             232             261    -616.257E-06    -10.7846E-03    -1.64127E-03    -4.70199E-03
             233              53    -976.503E-06    -7.00732E-03    -979.739E-06    -62.0952E-06
             233              54    -2.40419E-03    -7.52667E-03    -2.40681E-03    -50.7815E-06
             233             247    -975.972E-06    -7.01392E-03    -980.352E-06    -96.4858E-06
             233             262    -2.40879E-03    -7.54452E-03    -2.41241E-03    -93.9359E-06
             234             247    -975.972E-06    -7.01392E-03    -980.352E-06    -96.4858E-06
             234             248    -981.183E-06    -7.03865E-03    -986.828E-06    -177.605E-06
             234             262    -2.40879E-03    -7.54452E-03    -2.41241E-03    -93.9359E-06
             234             263    -2.41388E-03    -7.59403E-03    -2.42454E-03    -181.297E-06
             235             248    -981.183E-06    -7.03865E-03    -986.828E-06    -177.605E-06
             235             249    -990.280E-06    -7.07755E-03    -998.481E-06    -275.327E-06
             235             263    -2.41388E-03    -7.59403E-03    -2.42454E-03    -181.297E-06
             235             264    -2.41893E-03    -7.67912E-03    -2.44335E-03    -278.476E-06
             236             249    -990.280E-06    -7.07755E-03    -998.481E-06    -275.327E-06
             236             250    -999.609E-06    -7.13554E-03    -1.01501E-03    -390.493E-06
             236             264    -2.41893E-03    -7.67912E-03    -2.44335E-03    -278.476E-06
             236             265    -2.42555E-03    -7.80045E-03    -2.46963E-03    -387.395E-06
             237             250    -999.609E-06    -7.13554E-03    -1.01501E-03    -390.493E-06
             237             251    -1.01054E-03    -7.21464E-03    -1.03666E-03    -524.421E-06
             237             265    -2.42555E-03    -7.80045E-03    -2.46963E-03    -387.395E-06
             237             266    -2.43174E-03    -7.96279E-03    -2.50392E-03    -514.060E-06
             238             251    -1.01054E-03    -7.21464E-03    -1.03666E-03    -524.421E-06
             238             252    -1.02391E-03    -7.31813E-03    -1.06444E-03    -688.157E-06
             238             266    -2.43174E-03    -7.96279E-03    -2.50392E-03    -514.060E-06
             238             267    -2.43404E-03    -8.17200E-03    -2.54609E-03    -659.240E-06
             239             252    -1.02391E-03    -7.31813E-03    -1.06444E-03    -688.157E-06
             239             253    -1.03461E-03    -7.45211E-03    -1.09805E-03    -884.056E-06
             239             267    -2.43404E-03    -8.17200E-03    -2.54609E-03    -659.240E-06
             239             268    -2.43277E-03    -8.43317E-03    -2.59689E-03    -830.667E-06
             240             253    -1.03461E-03    -7.45211E-03    -1.09805E-03    -884.056E-06
             240             254    -1.04370E-03    -7.62260E-03    -1.13875E-03    -1.12598E-03
             240             268    -2.43277E-03    -8.43317E-03    -2.59689E-03    -830.667E-06
             240             269    -2.42083E-03    -8.75709E-03    -2.65628E-03    -1.02834E-03
             241             254    -1.04370E-03    -7.62260E-03    -1.13875E-03    -1.12598E-03
             241             255    -1.04181E-03    -7.84179E-03    -1.18614E-03    -1.41379E-03
             241             269    -2.42083E-03    -8.75709E-03    -2.65628E-03    -1.02834E-03
             241             270    -2.39898E-03    -9.14871E-03    -2.72466E-03    -1.26198E-03
             242             255    -1.04181E-03    -7.84179E-03    -1.18614E-03    -1.41379E-03
             242             256    -1.03210E-03    -8.11310E-03    -1.24084E-03    -1.76453E-03
             242             270    -2.39898E-03    -9.14871E-03    -2.72466E-03    -1.26198E-03
             242             271    -2.35602E-03    -9.62806E-03    -2.80301E-03    -1.53128E-03
             243             256    -1.03210E-03    -8.11310E-03    -1.24084E-03    -1.76453E-03
             243             257    -997.956E-06    -8.46272E-03    -1.30385E-03    -2.17989E-03
             243             271    -2.35602E-03    -9.62806E-03    -2.80301E-03    -1.53128E-03
             243             272    -2.29288E-03    -10.1949E-03    -2.88967E-03    -1.84361E-03
             244             257    -997.956E-06    -8.46272E-03    -1.30385E-03    -2.17989E-03
             244             258    -946.425E-06    -8.87642E-03    -1.37117E-03    -2.66476E-03
             244             272    -2.29288E-03    -10.1949E-03    -2.88967E-03    -1.84361E-03
             244             273    -2.19821E-03    -10.8852E-03    -2.98992E-03    -2.21283E-03
             245             258    -946.425E-06    -8.87642E-03    -1.37117E-03    -2.66476E-03
             245             259    -873.000E-06    -9.40395E-03    -1.45469E-03    -3.25259E-03
             245             273    -2.19821E-03    -10.8852E-03    -2.98992E-03    -2.21283E-03
             245             274    -2.05481E-03    -11.6931E-03    -3.09392E-03    -2.62556E-03
             246             259    -873.000E-06    -9.40395E-03    -1.45469E-03    -3.25259E-03
             246             260    -730.784E-06    -10.0253E-03    -1.53110E-03    -3.91213E-03
             246             274    -2.05481E-03    -11.6931E-03    -3.09392E-03    -2.62556E-03
             246             275    -1.89343E-03    -12.6578E-03    -3.22054E-03    -3.12288E-03
             247             260    -730.784E-06    -10.0253E-03    -1.53110E-03    -3.91213E-03
             247             261    -616.257E-06    -10.7846E-03    -1.64127E-03    -4.70199E-03
             247             275    -1.89343E-03    -12.6578E-03    -3.22054E-03    -3.12288E-03
             247             276    -1.62199E-03    -13.8032E-03    -3.34520E-03    -3.68537E-03
             248              96    -1.43370E-03    -14.4030E-03    -3.39324E-03    -3.96999E-03
             248              97    -588.942E-06    -11.2359E-03    -1.72300E-03    -5.14772E-03
             248             261    -616.257E-06    -10.7846E-03    -1.64127E-03    -4.70199E-03
             248             276    -1.62199E-03    -13.8032E-03    -3.34520E-03    -3.68537E-03
             249              54    -2.40419E-03    -7.52667E-03    -2.40681E-03    -50.7815E-06
             249              55    -3.55383E-03    -8.09721E-03    -3.55579E-03    -56.7746E-06
             249             262    -2.40879E-03    -7.54452E-03    -2.41241E-03    -93.9359E-06
             249             277    -3.55235E-03    -8.12053E-03    -3.55894E-03    -87.7820E-06
             250             262    -2.40879E-03    -7.54452E-03    -2.41241E-03    -93.9359E-06
             250             263    -2.41388E-03    -7.59403E-03    -2.42454E-03    -181.297E-06
             250             277    -3.55235E-03    -8.12053E-03    -3.55894E-03    -87.7820E-06
             250             278    -3.55247E-03    -8.19208E-03    -3.57118E-03    -160.492E-06
             251             263    -2.41388E-03    -7.59403E-03    -2.42454E-03    -181.297E-06
             251             264    -2.41893E-03    -7.67912E-03    -2.44335E-03    -278.476E-06
             251             278    -3.55247E-03    -8.19208E-03    -3.57118E-03    -160.492E-06
             251             279    -3.55147E-03    -8.30976E-03    -3.59170E-03    -243.318E-06
             252             264    -2.41893E-03    -7.67912E-03    -2.44335E-03    -278.476E-06
             252             265    -2.42555E-03    -7.80045E-03    -2.46963E-03    -387.395E-06
             252             279    -3.55147E-03    -8.30976E-03    -3.59170E-03    -243.318E-06
             252             280    -3.54781E-03    -8.47831E-03    -3.62078E-03    -333.232E-06
             253             265    -2.42555E-03    -7.80045E-03    -2.46963E-03    -387.395E-06
             253             266    -2.43174E-03    -7.96279E-03    -2.50392E-03    -514.060E-06
             253             280    -3.54781E-03    -8.47831E-03    -3.62078E-03    -333.232E-06
             253             281    -3.54011E-03    -8.70120E-03    -3.65824E-03    -430.362E-06
             254             266    -2.43174E-03    -7.96279E-03    -2.50392E-03    -514.060E-06
             254             267    -2.43404E-03    -8.17200E-03    -2.54609E-03    -659.240E-06
             254             281    -3.54011E-03    -8.70120E-03    -3.65824E-03    -430.362E-06
             254             282    -3.52766E-03    -8.98293E-03    -3.70459E-03    -538.531E-06
             255             267    -2.43404E-03    -8.17200E-03    -2.54609E-03    -659.240E-06
             255             268    -2.43277E-03    -8.43317E-03    -2.59689E-03    -830.667E-06
             255             282    -3.52766E-03    -8.98293E-03    -3.70459E-03    -538.531E-06
             255             283    -3.50538E-03    -9.33159E-03    -3.75978E-03    -656.921E-06
             256             268    -2.43277E-03    -8.43317E-03    -2.59689E-03    -830.667E-06
             256             269    -2.42083E-03    -8.75709E-03    -2.65628E-03    -1.02834E-03
             256             283    -3.50538E-03    -9.33159E-03    -3.75978E-03    -656.921E-06
             256             284    -3.47347E-03    -9.75182E-03    -3.82418E-03    -789.751E-06
             257             269    -2.42083E-03    -8.75709E-03    -2.65628E-03    -1.02834E-03
             257             270    -2.39898E-03    -9.14871E-03    -2.72466E-03    -1.26198E-03
             257             284    -3.47347E-03    -9.75182E-03    -3.82418E-03    -789.751E-06
             257             285    -3.42401E-03    -10.2582E-03    -3.89849E-03    -935.043E-06
             258             270    -2.39898E-03    -9.14871E-03    -2.72466E-03    -1.26198E-03
             258             271    -2.35602E-03    -9.62806E-03    -2.80301E-03    -1.53128E-03
             258             285    -3.42401E-03    -10.2582E-03    -3.89849E-03    -935.043E-06
             258             286    -3.35684E-03    -10.8537E-03    -3.98203E-03    -1.09605E-03
             259             271    -2.35602E-03    -9.62806E-03    -2.80301E-03    -1.53128E-03
             259             272    -2.29288E-03    -10.1949E-03    -2.88967E-03    -1.84361E-03
             259             286    -3.35684E-03    -10.8537E-03    -3.98203E-03    -1.09605E-03
             259             287    -3.26232E-03    -11.5641E-03    -4.07783E-03    -1.27365E-03
             260             272    -2.29288E-03    -10.1949E-03    -2.88967E-03    -1.84361E-03
             260             273    -2.19821E-03    -10.8852E-03    -2.98992E-03    -2.21283E-03
             260             287    -3.26232E-03    -11.5641E-03    -4.07783E-03    -1.27365E-03
             260             288    -3.13188E-03    -12.3910E-03    -4.18154E-03    -1.45966E-03
             261             273    -2.19821E-03    -10.8852E-03    -2.98992E-03    -2.21283E-03
             261             274    -2.05481E-03    -11.6931E-03    -3.09392E-03    -2.62556E-03
             261             288    -3.13188E-03    -12.3910E-03    -4.18154E-03    -1.45966E-03
             261             289    -2.96788E-03    -13.3704E-03    -4.30227E-03    -1.67144E-03
             262             274    -2.05481E-03    -11.6931E-03    -3.09392E-03    -2.62556E-03
             262             275    -1.89343E-03    -12.6578E-03    -3.22054E-03    -3.12288E-03
             262             289    -2.96788E-03    -13.3704E-03    -4.30227E-03    -1.67144E-03
             262             290    -2.72118E-03    -14.5172E-03    -4.42600E-03    -1.88600E-03
             263             275    -1.89343E-03    -12.6578E-03    -3.22054E-03    -3.12288E-03
             263             276    -1.62199E-03    -13.8032E-03    -3.34520E-03    -3.68537E-03
             263             290    -2.72118E-03    -14.5172E-03    -4.42600E-03    -1.88600E-03
             263             291    -2.43924E-03    -15.8484E-03    -4.56873E-03    -2.12001E-03
             264              95    -2.30906E-03    -16.5768E-03    -4.65557E-03    -2.25284E-03
             264              96    -1.43370E-03    -14.4030E-03    -3.39324E-03    -3.96999E-03
             264             276    -1.62199E-03    -13.8032E-03    -3.34520E-03    -3.68537E-03
             264             291    -2.43924E-03    -15.8484E-03    -4.56873E-03    -2.12001E-03
             265              55    -3.55383E-03    -8.09721E-03    -3.55579E-03    -56.7746E-06
             265              56    -4.13275E-03    -8.59334E-03    -4.13425E-03    -28.0943E-06
             265             277    -3.55235E-03    -8.12053E-03    -3.55894E-03    -87.7820E-06
             265             292    -4.13208E-03    -8.62040E-03    -4.13859E-03    -53.6177E-06
             266             277    -3.55235E-03    -8.12053E-03    -3.55894E-03    -87.7820E-06
             266             278    -3.55247E-03    -8.19208E-03    -3.57118E-03    -160.492E-06
             266             292    -4.13208E-03    -8.62040E-03    -4.13859E-03    -53.6177E-06
             266             293    -4.12582E-03    -8.69810E-03    -4.14904E-03    -101.371E-06
             267             278    -3.55247E-03    -8.19208E-03    -3.57118E-03    -160.492E-06
             267             279    -3.55147E-03    -8.30976E-03    -3.59170E-03    -243.318E-06
             267             293    -4.12582E-03    -8.69810E-03    -4.14904E-03    -101.371E-06
             267             294    -4.11546E-03    -8.82790E-03    -4.16648E-03    -149.657E-06
             268             279    -3.55147E-03    -8.30976E-03    -3.59170E-03    -243.318E-06
             268             280    -3.54781E-03    -8.47831E-03    -3.62078E-03    -333.232E-06
             268             294    -4.11546E-03    -8.82790E-03    -4.16648E-03    -149.657E-06
             268             295    -4.09983E-03    -9.01118E-03    -4.19101E-03    -197.911E-06
             269             280    -3.54781E-03    -8.47831E-03    -3.62078E-03    -333.232E-06
             269             281    -3.54011E-03    -8.70120E-03    -3.65824E-03    -430.362E-06
             269             295    -4.09983E-03    -9.01118E-03    -4.19101E-03    -197.911E-06
             269             296    -4.07764E-03    -9.25179E-03    -4.22290E-03    -246.183E-06
             270             281    -3.54011E-03    -8.70120E-03    -3.65824E-03    -430.362E-06
             270             282    -3.52766E-03    -8.98293E-03    -3.70459E-03    -538.531E-06
             270             296    -4.07764E-03    -9.25179E-03    -4.22290E-03    -246.183E-06
             270             297    -4.04585E-03    -9.55443E-03    -4.26191E-03    -292.446E-06
             271             282    -3.52766E-03    -8.98293E-03    -3.70459E-03    -538.531E-06
             271             283    -3.50538E-03    -9.33159E-03    -3.75978E-03    -656.921E-06
             271             297    -4.04585E-03    -9.55443E-03    -4.26191E-03    -292.446E-06
             271             298    -4.00420E-03    -9.92253E-03    -4.30825E-03    -337.298E-06
             272             283    -3.50538E-03    -9.33159E-03    -3.75978E-03    -656.921E-06
             272             284    -3.47347E-03    -9.75182E-03    -3.82418E-03    -789.751E-06
             272             298    -4.00420E-03    -9.92253E-03    -4.30825E-03    -337.298E-06
             272             299    -3.94701E-03    -10.3653E-03    -4.36198E-03    -377.776E-06
             273             284    -3.47347E-03    -9.75182E-03    -3.82418E-03    -789.751E-06
             273             285    -3.42401E-03    -10.2582E-03    -3.89849E-03    -935.043E-06
             273             299    -3.94701E-03    -10.3653E-03    -4.36198E-03    -377.776E-06
             273             300    -3.87419E-03    -10.8848E-03    -4.42267E-03    -413.744E-06
             274             285    -3.42401E-03    -10.2582E-03    -3.89849E-03    -935.043E-06
             274             286    -3.35684E-03    -10.8537E-03    -3.98203E-03    -1.09605E-03
             274             300    -3.87419E-03    -10.8848E-03    -4.42267E-03    -413.744E-06
             274             301    -3.77875E-03    -11.4968E-03    -4.49168E-03    -441.881E-06
             275             286    -3.35684E-03    -10.8537E-03    -3.98203E-03    -1.09605E-03
             275             287    -3.26232E-03    -11.5641E-03    -4.07783E-03    -1.27365E-03
             275             301    -3.77875E-03    -11.4968E-03    -4.49168E-03    -441.881E-06
             275             302    -3.65801E-03    -12.2006E-03    -4.56651E-03    -456.852E-06
             276             287    -3.26232E-03    -11.5641E-03    -4.07783E-03    -1.27365E-03
             276             288    -3.13188E-03    -12.3910E-03    -4.18154E-03    -1.45966E-03
             276             302    -3.65801E-03    -12.2006E-03    -4.56651E-03    -456.852E-06
             276             303    -3.51114E-03    -13.0178E-03    -4.65207E-03    -460.691E-06
             277             288    -3.13188E-03    -12.3910E-03    -4.18154E-03    -1.45966E-03
             277             289    -2.96788E-03    -13.3704E-03    -4.30227E-03    -1.67144E-03
             277             303    -3.51114E-03    -13.0178E-03    -4.65207E-03    -460.691E-06
             277             304    -3.31931E-03    -13.9517E-03    -4.74163E-03    -431.382E-06
             278             289    -2.96788E-03    -13.3704E-03    -4.30227E-03    -1.67144E-03
             278             290    -2.72118E-03    -14.5172E-03    -4.42600E-03    -1.88600E-03
             278             304    -3.31931E-03    -13.9517E-03    -4.74163E-03    -431.382E-06
             278             305    -3.10696E-03    -15.0227E-03    -4.84716E-03    -374.382E-06
             279             290    -2.72118E-03    -14.5172E-03    -4.42600E-03    -1.88600E-03
             279             291    -2.43924E-03    -15.8484E-03    -4.56873E-03    -2.12001E-03
             279             305    -3.10696E-03    -15.0227E-03    -4.84716E-03    -374.382E-06
             279             306    -2.81585E-03    -16.2653E-03    -4.95870E-03    -269.523E-06
             280              94    -2.63003E-03    -16.9239E-03    -5.00752E-03    -195.501E-06
             280              95    -2.30906E-03    -16.5768E-03    -4.65557E-03    -2.25284E-03
             280             291    -2.43924E-03    -15.8484E-03    -4.56873E-03    -2.12001E-03
             280             306    -2.81585E-03    -16.2653E-03    -4.95870E-03    -269.523E-06
             281              56    -4.13275E-03    -8.59334E-03    -4.13425E-03    -28.0943E-06
             281              57    -3.95816E-03    -8.80637E-03    -3.95929E-03    -6.11382E-06
             281             292    -4.13208E-03    -8.62040E-03    -4.13859E-03    -53.6177E-06
             281             307    -3.95319E-03    -8.82882E-03    -3.96037E-03    -3.48206E-06
             282             292    -4.13208E-03    -8.62040E-03    -4.13859E-03    -53.6177E-06
             282             293    -4.12582E-03    -8.69810E-03    -4.14904E-03    -101.371E-06
             282             307    -3.95319E-03    -8.82882E-03    -3.96037E-03    -3.48206E-06
             282             308    -3.94328E-03    -8.89646E-03    -3.96618E-03    -1.89801E-06
             283             293    -4.12582E-03    -8.69810E-03    -4.14904E-03    -101.371E-06
             283             294    -4.11546E-03    -8.82790E-03    -4.16648E-03    -149.657E-06
             283             308    -3.94328E-03    -8.89646E-03    -3.96618E-03    -1.89801E-06
             283             309    -3.92703E-03    -9.00747E-03    -3.97659E-03     1.95281E-06
             284             294    -4.11546E-03    -8.82790E-03    -4.16648E-03    -149.657E-06
             284             295    -4.09983E-03    -9.01118E-03    -4.19101E-03    -197.911E-06
             284             309    -3.92703E-03    -9.00747E-03    -3.97659E-03     1.95281E-06
             284             310    -3.90362E-03    -9.16451E-03    -3.99172E-03     11.9787E-06
             285             295    -4.09983E-03    -9.01118E-03    -4.19101E-03    -197.911E-06
             285             296    -4.07764E-03    -9.25179E-03    -4.22290E-03    -246.183E-06
             285             310    -3.90362E-03    -9.16451E-03    -3.99172E-03     11.9787E-06
             285             311    -3.87175E-03    -9.36910E-03    -4.01116E-03     30.8644E-06
             286             296    -4.07764E-03    -9.25179E-03    -4.22290E-03    -246.183E-06
             286             297    -4.04585E-03    -9.55443E-03    -4.26191E-03    -292.446E-06
             286             311    -3.87175E-03    -9.36910E-03    -4.01116E-03     30.8644E-06
             286             312    -3.83111E-03    -9.62320E-03    -4.03504E-03     60.5538E-06
             287             297    -4.04585E-03    -9.55443E-03    -4.26191E-03    -292.446E-06
             287             298    -4.00420E-03    -9.92253E-03    -4.30825E-03    -337.298E-06
             287             312    -3.83111E-03    -9.62320E-03    -4.03504E-03     60.5538E-06
             287             313    -3.77832E-03    -9.93116E-03    -4.06310E-03     105.057E-06
             288             298    -4.00420E-03    -9.92253E-03    -4.30825E-03    -337.298E-06
             288             299    -3.94701E-03    -10.3653E-03    -4.36198E-03    -377.776E-06
             288             313    -3.77832E-03    -9.93116E-03    -4.06310E-03     105.057E-06
             288             314    -3.71376E-03    -10.2937E-03    -4.09510E-03     167.130E-06
             289             299    -3.94701E-03    -10.3653E-03    -4.36198E-03    -377.776E-06
             289             300    -3.87419E-03    -10.8848E-03    -4.42267E-03    -413.744E-06
             289             314    -3.71376E-03    -10.2937E-03    -4.09510E-03     167.130E-06
             289             315    -3.63251E-03    -10.7190E-03    -4.13134E-03     251.640E-06
             290             300    -3.87419E-03    -10.8848E-03    -4.42267E-03    -413.744E-06
             290             301    -3.77875E-03    -11.4968E-03    -4.49168E-03    -441.881E-06
             290             315    -3.63251E-03    -10.7190E-03    -4.13134E-03     251.640E-06
             290             316    -3.53395E-03    -11.2051E-03    -4.17021E-03     363.602E-06
             291             301    -3.77875E-03    -11.4968E-03    -4.49168E-03    -441.881E-06
             291             302    -3.65801E-03    -12.2006E-03    -4.56651E-03    -456.852E-06
             291             316    -3.53395E-03    -11.2051E-03    -4.17021E-03     363.602E-06
             291             317    -3.41484E-03    -11.7646E-03    -4.21373E-03     506.160E-06
             292             302    -3.65801E-03    -12.2006E-03    -4.56651E-03    -456.852E-06
             292             303    -3.51114E-03    -13.0178E-03    -4.65207E-03    -460.691E-06
             292             317    -3.41484E-03    -11.7646E-03    -4.21373E-03     506.160E-06
             292             318    -3.26679E-03    -12.3932E-03    -4.25695E-03     691.584E-06
             293             303    -3.51114E-03    -13.0178E-03    -4.65207E-03    -460.691E-06
             293             304    -3.31931E-03    -13.9517E-03    -4.74163E-03    -431.382E-06
             293             318    -3.26679E-03    -12.3932E-03    -4.25695E-03     691.584E-06
             293             319    -3.10069E-03    -13.0995E-03    -4.30500E-03     915.682E-06
             294             304    -3.31931E-03    -13.9517E-03    -4.74163E-03    -431.382E-06
             294             305    -3.10696E-03    -15.0227E-03    -4.84716E-03    -374.382E-06
             294             319    -3.10069E-03    -13.0995E-03    -4.30500E-03     915.682E-06
             294             320    -2.88931E-03    -13.8819E-03    -4.34811E-03     1.19954E-03
             295             305    -3.10696E-03    -15.0227E-03    -4.84716E-03    -374.382E-06
             295             306    -2.81585E-03    -16.2653E-03    -4.95870E-03    -269.523E-06
             295             320    -2.88931E-03    -13.8819E-03    -4.34811E-03     1.19954E-03
             295             321    -2.67054E-03    -14.7290E-03    -4.39382E-03     1.55648E-03
             296              93    -2.57594E-03    -15.1749E-03    -4.42430E-03     1.74983E-03
             296              94    -2.63003E-03    -16.9239E-03    -5.00752E-03    -195.501E-06
             296             306    -2.81585E-03    -16.2653E-03    -4.95870E-03    -269.523E-06
             296             321    -2.67054E-03    -14.7290E-03    -4.39382E-03     1.55648E-03
             297              57    -3.95816E-03    -8.80637E-03    -3.95929E-03    -6.11382E-06
             297              58    -3.03640E-03    -8.49390E-03    -3.03727E-03     39.6984E-06
             297             307    -3.95319E-03    -8.82882E-03    -3.96037E-03    -3.48206E-06
             297             322    -3.03352E-03    -8.50799E-03    -3.03806E-03     61.6336E-06
             298             307    -3.95319E-03    -8.82882E-03    -3.96037E-03    -3.48206E-06
             298             308    -3.94328E-03    -8.89646E-03    -3.96618E-03    -1.89801E-06
             298             322    -3.03352E-03    -8.50799E-03    -3.03806E-03     61.6336E-06
             298             323    -3.02252E-03    -8.54843E-03    -3.03903E-03     114.603E-06
             299             308    -3.94328E-03    -8.89646E-03    -3.96618E-03    -1.89801E-06
             299             309    -3.92703E-03    -9.00747E-03    -3.97659E-03     1.95281E-06
             299             323    -3.02252E-03    -8.54843E-03    -3.03903E-03     114.603E-06
             299             324    -3.00589E-03    -8.61578E-03    -3.04132E-03     177.416E-06
             300             309    -3.92703E-03    -9.00747E-03    -3.97659E-03     1.95281E-06
             300             310    -3.90362E-03    -9.16451E-03    -3.99172E-03     11.9787E-06
             300             324    -3.00589E-03    -8.61578E-03    -3.04132E-03     177.416E-06
             300             325    -2.98277E-03    -8.70932E-03    -3.04476E-03     249.321E-06
             301             310    -3.90362E-03    -9.16451E-03    -3.99172E-03     11.9787E-06
             301             311    -3.87175E-03    -9.36910E-03    -4.01116E-03     30.8644E-06
             301             325    -2.98277E-03    -8.70932E-03    -3.04476E-03     249.321E-06
             301             326    -2.95331E-03    -8.82960E-03    -3.04947E-03     333.271E-06
             302             311    -3.87175E-03    -9.36910E-03    -4.01116E-03     30.8644E-06
             302             312    -3.83111E-03    -9.62320E-03    -4.03504E-03     60.5538E-06
             302             326    -2.95331E-03    -8.82960E-03    -3.04947E-03     333.271E-06
             302             327    -2.91657E-03    -8.97706E-03    -3.05518E-03     433.159E-06
             303             312    -3.83111E-03    -9.62320E-03    -4.03504E-03     60.5538E-06
             303             313    -3.77832E-03    -9.93116E-03    -4.06310E-03     105.057E-06
             303             327    -2.91657E-03    -8.97706E-03    -3.05518E-03     433.159E-06
             303             328    -2.87388E-03    -9.15054E-03    -3.06194E-03     552.502E-06
             304             313    -3.77832E-03    -9.93116E-03    -4.06310E-03     105.057E-06
             304             314    -3.71376E-03    -10.2937E-03    -4.09510E-03     167.130E-06
             304             328    -2.87388E-03    -9.15054E-03    -3.06194E-03     552.502E-06
             304             329    -2.82329E-03    -9.35235E-03    -3.06979E-03     696.095E-06
             305             314    -3.71376E-03    -10.2937E-03    -4.09510E-03     167.130E-06
             305             315    -3.63251E-03    -10.7190E-03    -4.13134E-03     251.640E-06
             305             329    -2.82329E-03    -9.35235E-03    -3.06979E-03     696.095E-06
             305             330    -2.76673E-03    -9.57875E-03    -3.07816E-03     868.974E-06
             306             315    -3.63251E-03    -10.7190E-03    -4.13134E-03     251.640E-06
             306             316    -3.53395E-03    -11.2051E-03    -4.17021E-03     363.602E-06
             306             330    -2.76673E-03    -9.57875E-03    -3.07816E-03     868.974E-06
             306             331    -2.70290E-03    -9.83499E-03    -3.08824E-03     1.07611E-03
             307             316    -3.53395E-03    -11.2051E-03    -4.17021E-03     363.602E-06
             307             317    -3.41484E-03    -11.7646E-03    -4.21373E-03     506.160E-06
             307             331    -2.70290E-03    -9.83499E-03    -3.08824E-03     1.07611E-03
             307             332    -2.63106E-03    -10.1143E-03    -3.09769E-03     1.32647E-03
             308             317    -3.41484E-03    -11.7646E-03    -4.21373E-03     506.160E-06
             308             318    -3.26679E-03    -12.3932E-03    -4.25695E-03     691.584E-06
             308             332    -2.63106E-03    -10.1143E-03    -3.09769E-03     1.32647E-03
             308             333    -2.55649E-03    -10.4235E-03    -3.11024E-03     1.62206E-03
             309             318    -3.26679E-03    -12.3932E-03    -4.25695E-03     691.584E-06
             309             319    -3.10069E-03    -13.0995E-03    -4.30500E-03     915.682E-06
             309             333    -2.55649E-03    -10.4235E-03    -3.11024E-03     1.62206E-03
             309             334    -2.46539E-03    -10.7592E-03    -3.12045E-03     1.97871E-03
             310             319    -3.10069E-03    -13.0995E-03    -4.30500E-03     915.682E-06
             310             320    -2.88931E-03    -13.8819E-03    -4.34811E-03     1.19954E-03
             310             334    -2.46539E-03    -10.7592E-03    -3.12045E-03     1.97871E-03
             310             335    -2.37788E-03    -11.1212E-03    -3.13435E-03     2.39327E-03
             311             320    -2.88931E-03    -13.8819E-03    -4.34811E-03     1.19954E-03
             311             321    -2.67054E-03    -14.7290E-03    -4.39382E-03     1.55648E-03
             311             335    -2.37788E-03    -11.1212E-03    -3.13435E-03     2.39327E-03
             311             336    -2.26567E-03    -11.5092E-03    -3.14313E-03     2.86683E-03
             312              92    -2.18964E-03    -11.7030E-03    -3.13998E-03     3.12269E-03
             312              93    -2.57594E-03    -15.1749E-03    -4.42430E-03     1.74983E-03
             312             321    -2.67054E-03    -14.7290E-03    -4.39382E-03     1.55648E-03
             312             336    -2.26567E-03    -11.5092E-03    -3.14313E-03     2.86683E-03
             313              58    -3.03640E-03    -8.49390E-03    -3.03727E-03     39.6984E-06
             313              59    -1.69028E-03    -7.49684E-03    -1.69094E-03     65.8165E-06
             313             322    -3.03352E-03    -8.50799E-03    -3.03806E-03     61.6336E-06
             313             337    -1.68638E-03    -7.49941E-03    -1.68907E-03     115.201E-06
             314             322    -3.03352E-03    -8.50799E-03    -3.03806E-03     61.6336E-06
             314             323    -3.02252E-03    -8.54843E-03    -3.03903E-03     114.603E-06
             314             337    -1.68638E-03    -7.49941E-03    -1.68907E-03     115.201E-06
             314             338    -1.67865E-03    -7.50833E-03    -1.68570E-03     216.278E-06
             315             323    -3.02252E-03    -8.54843E-03    -3.03903E-03     114.603E-06
             315             324    -3.00589E-03    -8.61578E-03    -3.04132E-03     177.416E-06
             315             338    -1.67865E-03    -7.50833E-03    -1.68570E-03     216.278E-06
             315             339    -1.66626E-03    -7.52241E-03    -1.68080E-03     326.232E-06
             316             324    -3.00589E-03    -8.61578E-03    -3.04132E-03     177.416E-06
             316             325    -2.98277E-03    -8.70932E-03    -3.04476E-03     249.321E-06
             316             339    -1.66626E-03    -7.52241E-03    -1.68080E-03     326.232E-06
             316             340    -1.64974E-03    -7.54135E-03    -1.67436E-03     444.476E-06
             317             325    -2.98277E-03    -8.70932E-03    -3.04476E-03     249.321E-06
             317             326    -2.95331E-03    -8.82960E-03    -3.04947E-03     333.271E-06
             317             340    -1.64974E-03    -7.54135E-03    -1.67436E-03     444.476E-06
             317             341    -1.62928E-03    -7.56354E-03    -1.66605E-03     572.853E-06
             318             326    -2.95331E-03    -8.82960E-03    -3.04947E-03     333.271E-06
             318             327    -2.91657E-03    -8.97706E-03    -3.05518E-03     433.159E-06
             318             341    -1.62928E-03    -7.56354E-03    -1.66605E-03     572.853E-06
             318             342    -1.60625E-03    -7.58707E-03    -1.65596E-03     713.723E-06
             319             327    -2.91657E-03    -8.97706E-03    -3.05518E-03     433.159E-06
             319             328    -2.87388E-03    -9.15054E-03    -3.06194E-03     552.502E-06
             319             342    -1.60625E-03    -7.58707E-03    -1.65596E-03     713.723E-06
             319             343    -1.58043E-03    -7.61078E-03    -1.64394E-03     870.007E-06
             320             328    -2.87388E-03    -9.15054E-03    -3.06194E-03     552.502E-06
             320             329    -2.82329E-03    -9.35235E-03    -3.06979E-03     696.095E-06
             320             343    -1.58043E-03    -7.61078E-03    -1.64394E-03     870.007E-06
             320             344    -1.55456E-03    -7.63014E-03    -1.62982E-03     1.04475E-03
             321             329    -2.82329E-03    -9.35235E-03    -3.06979E-03     696.095E-06
             321             330    -2.76673E-03    -9.57875E-03    -3.07816E-03     868.974E-06
             321             344    -1.55456E-03    -7.63014E-03    -1.62982E-03     1.04475E-03
             321             345    -1.52875E-03    -7.64496E-03    -1.61405E-03     1.24089E-03
             322             330    -2.76673E-03    -9.57875E-03    -3.07816E-03     868.974E-06
             322             331    -2.70290E-03    -9.83499E-03    -3.08824E-03     1.07611E-03
             322             345    -1.52875E-03    -7.64496E-03    -1.61405E-03     1.24089E-03
             322             346    -1.50579E-03    -7.64695E-03    -1.59550E-03     1.46320E-03
             323             331    -2.70290E-03    -9.83499E-03    -3.08824E-03     1.07611E-03
             323             332    -2.63106E-03    -10.1143E-03    -3.09769E-03     1.32647E-03
             323             346    -1.50579E-03    -7.64695E-03    -1.59550E-03     1.46320E-03
             323             347    -1.48950E-03    -7.63700E-03    -1.57633E-03     1.71337E-03
             324             332    -2.63106E-03    -10.1143E-03    -3.09769E-03     1.32647E-03
             324             333    -2.55649E-03    -10.4235E-03    -3.11024E-03     1.62206E-03
             324             347    -1.48950E-03    -7.63700E-03    -1.57633E-03     1.71337E-03
             324             348    -1.47778E-03    -7.60459E-03    -1.55342E-03     2.00058E-03
             325             333    -2.55649E-03    -10.4235E-03    -3.11024E-03     1.62206E-03
             325             334    -2.46539E-03    -10.7592E-03    -3.12045E-03     1.97871E-03
             325             348    -1.47778E-03    -7.60459E-03    -1.55342E-03     2.00058E-03
             325             349    -1.48655E-03    -7.54722E-03    -1.53192E-03     2.32449E-03
             326             334    -2.46539E-03    -10.7592E-03    -3.12045E-03     1.97871E-03
             326             335    -2.37788E-03    -11.1212E-03    -3.13435E-03     2.39327E-03
             326             349    -1.48655E-03    -7.54722E-03    -1.53192E-03     2.32449E-03
             326             350    -1.50209E-03    -7.46264E-03    -1.50795E-03     2.70009E-03
             327             335    -2.37788E-03    -11.1212E-03    -3.13435E-03     2.39327E-03
             327             336    -2.26567E-03    -11.5092E-03    -3.14313E-03     2.86683E-03
             327             350    -1.50209E-03    -7.46264E-03    -1.50795E-03     2.70009E-03
             327             351    -1.54708E-03    -7.35384E-03    -1.49008E-03     3.13831E-03
             328              91    -1.58845E-03    -7.29932E-03    -1.48810E-03     3.37069E-03
             328              92    -2.18964E-03    -11.7030E-03    -3.13998E-03     3.12269E-03
             328             336    -2.26567E-03    -11.5092E-03    -3.14313E-03     2.86683E-03
             328             351    -1.54708E-03    -7.35384E-03    -1.49008E-03     3.13831E-03
             329              59    -1.69028E-03    -7.49684E-03    -1.69094E-03     65.8165E-06
             329              60    -458.880E-06    -5.85040E-03    -459.371E-06     89.3241E-06
             329             337    -1.68638E-03    -7.49941E-03    -1.68907E-03     115.201E-06
             329             352    -458.842E-06    -5.84534E-03    -458.354E-06     145.050E-06
             330             337    -1.68638E-03    -7.49941E-03    -1.68907E-03     115.201E-06
             330             338    -1.67865E-03    -7.50833E-03    -1.68570E-03     216.278E-06
             330             352    -458.842E-06    -5.84534E-03    -458.354E-06     145.050E-06
             330             353    -455.908E-06    -5.83012E-03    -454.036E-06     266.742E-06
             331             338    -1.67865E-03    -7.50833E-03    -1.68570E-03     216.278E-06
             331             339    -1.66626E-03    -7.52241E-03    -1.68080E-03     326.232E-06
             331             353    -455.908E-06    -5.83012E-03    -454.036E-06     266.742E-06
             331             354    -451.720E-06    -5.80560E-03    -447.032E-06     398.292E-06
             332             339    -1.66626E-03    -7.52241E-03    -1.68080E-03     326.232E-06
             332             340    -1.64974E-03    -7.54135E-03    -1.67436E-03     444.476E-06
             332             354    -451.720E-06    -5.80560E-03    -447.032E-06     398.292E-06
             332             355    -446.332E-06    -5.76987E-03    -437.134E-06     534.094E-06
             333             340    -1.64974E-03    -7.54135E-03    -1.67436E-03     444.476E-06
             333             341    -1.62928E-03    -7.56354E-03    -1.66605E-03     572.853E-06
             333             355    -446.332E-06    -5.76987E-03    -437.134E-06     534.094E-06
             333             356    -440.518E-06    -5.72177E-03    -424.438E-06     674.717E-06
             334             341    -1.62928E-03    -7.56354E-03    -1.66605E-03     572.853E-06
             334             342    -1.60625E-03    -7.58707E-03    -1.65596E-03     713.723E-06
             334             356    -440.518E-06    -5.72177E-03    -424.438E-06     674.717E-06
             334             357    -434.427E-06    -5.65961E-03    -408.694E-06     820.929E-06
             335             342    -1.60625E-03    -7.58707E-03    -1.65596E-03     713.723E-06
             335             343    -1.58043E-03    -7.61078E-03    -1.64394E-03     870.007E-06
             335             357    -434.427E-06    -5.65961E-03    -408.694E-06     820.929E-06
             335             358    -429.878E-06    -5.58025E-03    -389.845E-06     973.579E-06
             336             343    -1.58043E-03    -7.61078E-03    -1.64394E-03     870.007E-06
             336             344    -1.55456E-03    -7.63014E-03    -1.62982E-03     1.04475E-03
             336             358    -429.878E-06    -5.58025E-03    -389.845E-06     973.579E-06
             336             359    -426.801E-06    -5.48226E-03    -367.815E-06     1.13319E-03
             337             344    -1.55456E-03    -7.63014E-03    -1.62982E-03     1.04475E-03
             337             345    -1.52875E-03    -7.64496E-03    -1.61405E-03     1.24089E-03
             337             359    -426.801E-06    -5.48226E-03    -367.815E-06     1.13319E-03
             337             360    -427.645E-06    -5.35958E-03    -341.983E-06     1.30098E-03
             338             345    -1.52875E-03    -7.64496E-03    -1.61405E-03     1.24089E-03
             338             346    -1.50579E-03    -7.64695E-03    -1.59550E-03     1.46320E-03
             338             360    -427.645E-06    -5.35958E-03    -341.983E-06     1.30098E-03
             338             361    -433.653E-06    -5.21137E-03    -313.040E-06     1.47618E-03
             339             346    -1.50579E-03    -7.64695E-03    -1.59550E-03     1.46320E-03
             339             347    -1.48950E-03    -7.63700E-03    -1.57633E-03     1.71337E-03
             339             361    -433.653E-06    -5.21137E-03    -313.040E-06     1.47618E-03
             339             362    -445.346E-06    -5.02779E-03    -278.794E-06     1.66137E-03
             340             347    -1.48950E-03    -7.63700E-03    -1.57633E-03     1.71337E-03
             340             348    -1.47778E-03    -7.60459E-03    -1.55342E-03     2.00058E-03
             340             362    -445.346E-06    -5.02779E-03    -278.794E-06     1.66137E-03
             340             363    -470.071E-06    -4.80629E-03    -241.567E-06     1.85295E-03
             341             348    -1.47778E-03    -7.60459E-03    -1.55342E-03     2.00058E-03
             341             349    -1.48655E-03    -7.54722E-03    -1.53192E-03     2.32449E-03
             341             363    -470.071E-06    -4.80629E-03    -241.567E-06     1.85295E-03
             341             364    -500.395E-06    -4.53554E-03    -196.529E-06     2.05553E-03
             342             349    -1.48655E-03    -7.54722E-03    -1.53192E-03     2.32449E-03
             342             350    -1.50209E-03    -7.46264E-03    -1.50795E-03     2.70009E-03
             342             364    -500.395E-06    -4.53554E-03    -196.529E-06     2.05553E-03
             342             365    -555.772E-06    -4.20052E-03    -146.294E-06     2.26401E-03
             343             350    -1.50209E-03    -7.46264E-03    -1.50795E-03     2.70009E-03
             343             351    -1.54708E-03    -7.35384E-03    -1.49008E-03     3.13831E-03
             343             365    -555.772E-06    -4.20052E-03    -146.294E-06     2.26401E-03
             343             366    -628.422E-06    -3.77919E-03    -83.6836E-06     2.48109E-03
             344              90    -660.724E-06    -3.53966E-03    -44.7855E-06     2.59571E-03
             344              91    -1.58845E-03    -7.29932E-03    -1.48810E-03     3.37069E-03
             344             351    -1.54708E-03    -7.35384E-03    -1.49008E-03     3.13831E-03
             344             366    -628.422E-06    -3.77919E-03    -83.6836E-06     2.48109E-03
             345              60    -458.880E-06    -5.85040E-03    -459.371E-06     89.3241E-06
             345              61     210.330E-06    -3.89191E-03     209.942E-06     76.0714E-06
             345             352    -458.842E-06    -5.84534E-03    -458.354E-06     145.050E-06
             345             367     209.586E-06    -3.88386E-03     211.041E-06     130.406E-06
             346             352    -458.842E-06    -5.84534E-03    -458.354E-06     145.050E-06
             346             353    -455.908E-06    -5.83012E-03    -454.036E-06     266.742E-06
             346             367     209.586E-06    -3.88386E-03     211.041E-06     130.406E-06
             346             368     205.642E-06    -3.86132E-03     213.097E-06     241.101E-06
             347             353    -455.908E-06    -5.83012E-03    -454.036E-06     266.742E-06
             347             354    -451.720E-06    -5.80560E-03    -447.032E-06     398.292E-06
             347             368     205.642E-06    -3.86132E-03     213.097E-06     241.101E-06
             347             369     200.184E-06    -3.82411E-03     216.651E-06     356.825E-06
             348             354    -451.720E-06    -5.80560E-03    -447.032E-06     398.292E-06
             348             355    -446.332E-06    -5.76987E-03    -437.134E-06     534.094E-06
             348             369     200.184E-06    -3.82411E-03     216.651E-06     356.825E-06
             348             370     192.305E-06    -3.77198E-03     221.651E-06     473.561E-06
             349             355    -446.332E-06    -5.76987E-03    -437.134E-06     534.094E-06
             349             356    -440.518E-06    -5.72177E-03    -424.438E-06     674.717E-06
             349             370     192.305E-06    -3.77198E-03     221.651E-06     473.561E-06
             349             371     181.846E-06    -3.70395E-03     228.213E-06     590.222E-06
             350             356    -440.518E-06    -5.72177E-03    -424.438E-06     674.717E-06
             350             357    -434.427E-06    -5.65961E-03    -408.694E-06     820.929E-06
             350             371     181.846E-06    -3.70395E-03     228.213E-06     590.222E-06
             350             372     167.931E-06    -3.61910E-03     236.185E-06     706.403E-06
             351             357    -434.427E-06    -5.65961E-03    -408.694E-06     820.929E-06
             351             358    -429.878E-06    -5.58025E-03    -389.845E-06     973.579E-06
             351             372     167.931E-06    -3.61910E-03     236.185E-06     706.403E-06
             351             373     150.790E-06    -3.51701E-03     245.607E-06     821.411E-06
             352             358    -429.878E-06    -5.58025E-03    -389.845E-06     973.579E-06
             352             359    -426.801E-06    -5.48226E-03    -367.815E-06     1.13319E-03
             352             373     150.790E-06    -3.51701E-03     245.607E-06     821.411E-06
             352             374     128.913E-06    -3.39539E-03     256.514E-06     934.859E-06
             353             359    -426.801E-06    -5.48226E-03    -367.815E-06     1.13319E-03
             353             360    -427.645E-06    -5.35958E-03    -341.983E-06     1.30098E-03
             353             374     128.913E-06    -3.39539E-03     256.514E-06     934.859E-06
             353             375     102.415E-06    -3.25492E-03     268.522E-06     1.04506E-03
             354             360    -427.645E-06    -5.35958E-03    -341.983E-06     1.30098E-03
             354             361    -433.653E-06    -5.21137E-03    -313.040E-06     1.47618E-03
             354             375     102.415E-06    -3.25492E-03     268.522E-06     1.04506E-03
             354             376     70.4011E-06    -3.09135E-03     282.412E-06     1.15193E-03
             355             361    -433.653E-06    -5.21137E-03    -313.040E-06     1.47618E-03
             355             362    -445.346E-06    -5.02779E-03    -278.794E-06     1.66137E-03
             355             376     70.4011E-06    -3.09135E-03     282.412E-06     1.15193E-03
             355             377     30.4777E-06    -2.90672E-03     296.538E-06     1.25148E-03
             356             362    -445.346E-06    -5.02779E-03    -278.794E-06     1.66137E-03
             356             363    -470.071E-06    -4.80629E-03    -241.567E-06     1.85295E-03
             356             377     30.4777E-06    -2.90672E-03     296.538E-06     1.25148E-03
             356             378    -13.8276E-06    -2.69607E-03     313.243E-06     1.34426E-03
             357             363    -470.071E-06    -4.80629E-03    -241.567E-06     1.85295E-03
             357             364    -500.395E-06    -4.53554E-03    -196.529E-06     2.05553E-03
             357             378    -13.8276E-06    -2.69607E-03     313.243E-06     1.34426E-03
             357             379    -72.5996E-06    -2.46012E-03     328.858E-06     1.42286E-03
             358             364    -500.395E-06    -4.53554E-03    -196.529E-06     2.05553E-03
             358             365    -555.772E-06    -4.20052E-03    -146.294E-06     2.26401E-03
             358             379    -72.5996E-06    -2.46012E-03     328.858E-06     1.42286E-03
             358             380    -134.040E-06    -2.20021E-03     346.289E-06     1.48503E-03
             359             365    -555.772E-06    -4.20052E-03    -146.294E-06     2.26401E-03
             359             366    -628.422E-06    -3.77919E-03    -83.6836E-06     2.48109E-03
             359             380    -134.040E-06    -2.20021E-03     346.289E-06     1.48503E-03
             359             381    -210.638E-06    -1.91812E-03     361.131E-06     1.51838E-03
             360              89    -260.853E-06    -1.77488E-03     364.396E-06     1.52292E-03
             360              90    -660.724E-06    -3.53966E-03    -44.7855E-06     2.59571E-03
             360             366    -628.422E-06    -3.77919E-03    -83.6836E-06     2.48109E-03
             360             381    -210.638E-06    -1.91812E-03     361.131E-06     1.51838E-03
             361              61     210.330E-06    -3.89191E-03     209.942E-06     76.0714E-06
             361              62     323.564E-06    -2.17114E-03     323.261E-06     52.8905E-06
             361             367     209.586E-06    -3.88386E-03     211.041E-06     130.406E-06
             361             382     320.474E-06    -2.16562E-03     322.529E-06     84.8267E-06
             362             367     209.586E-06    -3.88386E-03     211.041E-06     130.406E-06
             362             368     205.642E-06    -3.86132E-03     213.097E-06     241.101E-06
             362             382     320.474E-06    -2.16562E-03     322.529E-06     84.8267E-06
             362             383     314.523E-06    -2.14907E-03     321.857E-06     154.438E-06
             363             368     205.642E-06    -3.86132E-03     213.097E-06     241.101E-06
             363             369     200.184E-06    -3.82411E-03     216.651E-06     356.825E-06
             363             383     314.523E-06    -2.14907E-03     321.857E-06     154.438E-06
             363             384     305.284E-06    -2.12250E-03     321.213E-06     227.533E-06
             364             369     200.184E-06    -3.82411E-03     216.651E-06     356.825E-06
             364             370     192.305E-06    -3.77198E-03     221.651E-06     473.561E-06
             364             384     305.284E-06    -2.12250E-03     321.213E-06     227.533E-06
             364             385     292.626E-06    -2.08540E-03     320.571E-06     299.358E-06
             365             370     192.305E-06    -3.77198E-03     221.651E-06     473.561E-06
             365             371     181.846E-06    -3.70395E-03     228.213E-06     590.222E-06
             365             385     292.626E-06    -2.08540E-03     320.571E-06     299.358E-06
             365             386     276.297E-06    -2.03808E-03     319.715E-06     369.144E-06
             366             371     181.846E-06    -3.70395E-03     228.213E-06     590.222E-06
             366             372     167.931E-06    -3.61910E-03     236.185E-06     706.403E-06
             366             386     276.297E-06    -2.03808E-03     319.715E-06     369.144E-06
             366             387     256.607E-06    -1.98080E-03     318.665E-06     435.948E-06
             367             372     167.931E-06    -3.61910E-03     236.185E-06     706.403E-06
             367             373     150.790E-06    -3.51701E-03     245.607E-06     821.411E-06
             367             387     256.607E-06    -1.98080E-03     318.665E-06     435.948E-06
             367             388     232.949E-06    -1.91345E-03     317.268E-06     499.166E-06
             368             373     150.790E-06    -3.51701E-03     245.607E-06     821.411E-06
             368             374     128.913E-06    -3.39539E-03     256.514E-06     934.859E-06
             368             388     232.949E-06    -1.91345E-03     317.268E-06     499.166E-06
             368             389     206.050E-06    -1.83739E-03     315.363E-06     557.574E-06
             369             374     128.913E-06    -3.39539E-03     256.514E-06     934.859E-06
             369             375     102.415E-06    -3.25492E-03     268.522E-06     1.04506E-03
             369             389     206.050E-06    -1.83739E-03     315.363E-06     557.574E-06
             369             390     175.431E-06    -1.75179E-03     313.095E-06     611.001E-06
             370             375     102.415E-06    -3.25492E-03     268.522E-06     1.04506E-03
             370             376     70.4011E-06    -3.09135E-03     282.412E-06     1.15193E-03
             370             390     175.431E-06    -1.75179E-03     313.095E-06     611.001E-06
             370             391     141.238E-06    -1.65988E-03     309.591E-06     657.231E-06
             371             376     70.4011E-06    -3.09135E-03     282.412E-06     1.15193E-03
             371             377     30.4777E-06    -2.90672E-03     296.538E-06     1.25148E-03
             371             391     141.238E-06    -1.65988E-03     309.591E-06     657.231E-06
             371             392     105.354E-06    -1.56027E-03     305.982E-06     697.202E-06
             372             377     30.4777E-06    -2.90672E-03     296.538E-06     1.25148E-03
             372             378    -13.8276E-06    -2.69607E-03     313.243E-06     1.34426E-03
             372             392     105.354E-06    -1.56027E-03     305.982E-06     697.202E-06
             372             393     64.4152E-06    -1.45784E-03     299.890E-06     727.246E-06
             373             378    -13.8276E-06    -2.69607E-03     313.243E-06     1.34426E-03
             373             379    -72.5996E-06    -2.46012E-03     328.858E-06     1.42286E-03
             373             393     64.4152E-06    -1.45784E-03     299.890E-06     727.246E-06
             373             394     27.2641E-06    -1.35373E-03     293.961E-06     749.528E-06
             374             379    -72.5996E-06    -2.46012E-03     328.858E-06     1.42286E-03
             374             380    -134.040E-06    -2.20021E-03     346.289E-06     1.48503E-03
             374             394     27.2641E-06    -1.35373E-03     293.961E-06     749.528E-06
             374             395    -15.0469E-06    -1.25092E-03     284.921E-06     761.732E-06
             375             380    -134.040E-06    -2.20021E-03     346.289E-06     1.48503E-03
             375             381    -210.638E-06    -1.91812E-03     361.131E-06     1.51838E-03
             375             395    -15.0469E-06    -1.25092E-03     284.921E-06     761.732E-06
             375             396    -49.3987E-06    -1.15680E-03     274.937E-06     768.739E-06
             376              88    -57.0785E-06    -1.11078E-03     272.419E-06     774.332E-06
             376              89    -260.853E-06    -1.77488E-03     364.396E-06     1.52292E-03
             376             381    -210.638E-06    -1.91812E-03     361.131E-06     1.51838E-03
             376             396    -49.3987E-06    -1.15680E-03     274.937E-06     768.739E-06
             377              62     323.564E-06    -2.17114E-03     323.261E-06     52.8905E-06
             377              63     208.650E-06    -1.06765E-03     208.413E-06     21.2945E-06
             377             382     320.474E-06    -2.16562E-03     322.529E-06     84.8267E-06
             377             397     207.848E-06    -1.06509E-03     208.453E-06     38.0976E-06
             378             382     320.474E-06    -2.16562E-03     322.529E-06     84.8267E-06
             378             383     314.523E-06    -2.14907E-03     321.857E-06     154.438E-06
             378             397     207.848E-06    -1.06509E-03     208.453E-06     38.0976E-06
             378             398     204.083E-06    -1.05833E-03     207.681E-06     70.5665E-06
             379             383     314.523E-06    -2.14907E-03     321.857E-06     154.438E-06
             379             384     305.284E-06    -2.12250E-03     321.213E-06     227.533E-06
             379             398     204.083E-06    -1.05833E-03     207.681E-06     70.5665E-06
             379             399     198.805E-06    -1.04721E-03     206.566E-06     103.440E-06
             380             384     305.284E-06    -2.12250E-03     321.213E-06     227.533E-06
             380             385     292.626E-06    -2.08540E-03     320.571E-06     299.358E-06
             380             399     198.805E-06    -1.04721E-03     206.566E-06     103.440E-06
             380             400     191.632E-06    -1.03214E-03     205.068E-06     135.732E-06
             381             385     292.626E-06    -2.08540E-03     320.571E-06     299.358E-06
             381             386     276.297E-06    -2.03808E-03     319.715E-06     369.144E-06
             381             400     191.632E-06    -1.03214E-03     205.068E-06     135.732E-06
             381             401     182.792E-06    -1.01315E-03     203.270E-06     166.669E-06
             382             386     276.297E-06    -2.03808E-03     319.715E-06     369.144E-06
             382             387     256.607E-06    -1.98080E-03     318.665E-06     435.948E-06
             382             401     182.792E-06    -1.01315E-03     203.270E-06     166.669E-06
             382             402     172.161E-06    -990.490E-06     201.087E-06     196.054E-06
             383             387     256.607E-06    -1.98080E-03     318.665E-06     435.948E-06
             383             388     232.949E-06    -1.91345E-03     317.268E-06     499.166E-06
             383             402     172.161E-06    -990.490E-06     201.087E-06     196.054E-06
             383             403     160.417E-06    -964.837E-06     198.590E-06     223.401E-06
             384             388     232.949E-06    -1.91345E-03     317.268E-06     499.166E-06
             384             389     206.050E-06    -1.83739E-03     315.363E-06     557.574E-06
             384             403     160.417E-06    -964.837E-06     198.590E-06     223.401E-06
             384             404     147.279E-06    -935.947E-06     195.835E-06     248.887E-06
             385             389     206.050E-06    -1.83739E-03     315.363E-06     557.574E-06
             385             390     175.431E-06    -1.75179E-03     313.095E-06     611.001E-06
             385             404     147.279E-06    -935.947E-06     195.835E-06     248.887E-06
             385             405     133.460E-06    -905.406E-06     192.643E-06     271.677E-06
             386             390     175.431E-06    -1.75179E-03     313.095E-06     611.001E-06
             386             391     141.238E-06    -1.65988E-03     309.591E-06     657.231E-06
             386             405     133.460E-06    -905.406E-06     192.643E-06     271.677E-06
             386             406     119.479E-06    -871.924E-06     189.668E-06     292.935E-06
             387             391     141.238E-06    -1.65988E-03     309.591E-06     657.231E-06
             387             392     105.354E-06    -1.56027E-03     305.982E-06     697.202E-06
             387             406     119.479E-06    -871.924E-06     189.668E-06     292.935E-06
             387             407     104.278E-06    -838.106E-06     185.882E-06     311.070E-06
             388             392     105.354E-06    -1.56027E-03     305.982E-06     697.202E-06
             388             393     64.4152E-06    -1.45784E-03     299.890E-06     727.246E-06
             388             407     104.278E-06    -838.106E-06     185.882E-06     311.070E-06
             388             408     91.7646E-06    -801.781E-06     183.260E-06     328.753E-06
             389             393     64.4152E-06    -1.45784E-03     299.890E-06     727.246E-06
             389             394     27.2641E-06    -1.35373E-03     293.961E-06     749.528E-06
             389             408     91.7646E-06    -801.781E-06     183.260E-06     328.753E-06
             389             409     75.5258E-06    -764.288E-06     179.496E-06     344.220E-06
             390             394     27.2641E-06    -1.35373E-03     293.961E-06     749.528E-06
             390             395    -15.0469E-06    -1.25092E-03     284.921E-06     761.732E-06
             390             409     75.5258E-06    -764.288E-06     179.496E-06     344.220E-06
             390             410     64.4373E-06    -724.911E-06     177.546E-06     359.754E-06
             391             395    -15.0469E-06    -1.25092E-03     284.921E-06     761.732E-06
             391             396    -49.3987E-06    -1.15680E-03     274.937E-06     768.739E-06
             391             410     64.4373E-06    -724.911E-06     177.546E-06     359.754E-06
             391             411     48.5710E-06    -677.944E-06     176.113E-06     373.485E-06
             392              87     33.0742E-06    -653.368E-06     173.317E-06     377.463E-06
             392              88    -57.0785E-06    -1.11078E-03     272.419E-06     774.332E-06
             392             396    -49.3987E-06    -1.15680E-03     274.937E-06     768.739E-06
             392             411     48.5710E-06    -677.944E-06     176.113E-06     373.485E-06
             393              63     208.650E-06    -1.06765E-03     208.413E-06     21.2945E-06
             393              64     111.803E-06    -518.886E-06     111.621E-06     10.7375E-06
             393             397     207.848E-06    -1.06509E-03     208.453E-06     38.0976E-06
             393             412     110.817E-06    -518.285E-06     111.190E-06     15.5299E-06
             394             397     207.848E-06    -1.06509E-03     208.453E-06     38.0976E-06
             394             398     204.083E-06    -1.05833E-03     207.681E-06     70.5665E-06
             394             412     110.817E-06    -518.285E-06     111.190E-06     15.5299E-06
             394             413     109.890E-06    -516.130E-06     110.903E-06     27.7573E-06
             395             398     204.083E-06    -1.05833E-03     207.681E-06     70.5665E-06
             395             399     198.805E-06    -1.04721E-03     206.566E-06     103.440E-06
             395             413     109.890E-06    -516.130E-06     110.903E-06     27.7573E-06
             395             414     108.335E-06    -512.937E-06     110.567E-06     41.1011E-06
             396             399     198.805E-06    -1.04721E-03     206.566E-06     103.440E-06
             396             400     191.632E-06    -1.03214E-03     205.068E-06     135.732E-06
             396             414     108.335E-06    -512.937E-06     110.567E-06     41.1011E-06
             396             415     106.274E-06    -508.380E-06     110.191E-06     54.2007E-06
             397             400     191.632E-06    -1.03214E-03     205.068E-06     135.732E-06
             397             401     182.792E-06    -1.01315E-03     203.270E-06     166.669E-06
             397             415     106.274E-06    -508.380E-06     110.191E-06     54.2007E-06
             397             416     103.610E-06    -502.616E-06     109.691E-06     67.1786E-06
             398             401     182.792E-06    -1.01315E-03     203.270E-06     166.669E-06
             398             402     172.161E-06    -990.490E-06     201.087E-06     196.054E-06
             398             416     103.610E-06    -502.616E-06     109.691E-06     67.1786E-06
             398             417     100.588E-06    -495.671E-06     109.149E-06     79.8176E-06
             399             402     172.161E-06    -990.490E-06     201.087E-06     196.054E-06
             399             403     160.417E-06    -964.837E-06     198.590E-06     223.401E-06
             399             417     100.588E-06    -495.671E-06     109.149E-06     79.8176E-06
             399             418     96.8469E-06    -487.340E-06     108.515E-06     92.2843E-06
             400             403     160.417E-06    -964.837E-06     198.590E-06     223.401E-06
             400             404     147.279E-06    -935.947E-06     195.835E-06     248.887E-06
             400             418     96.8469E-06    -487.340E-06     108.515E-06     92.2843E-06
             400             419     92.8057E-06    -478.100E-06     107.776E-06     104.176E-06
             401             404     147.279E-06    -935.947E-06     195.835E-06     248.887E-06
             401             405     133.460E-06    -905.406E-06     192.643E-06     271.677E-06
             401             419     92.8057E-06    -478.100E-06     107.776E-06     104.176E-06
             401             420     88.1671E-06    -467.075E-06     107.108E-06     116.121E-06
             402             405     133.460E-06    -905.406E-06     192.643E-06     271.677E-06
             402             406     119.479E-06    -871.924E-06     189.668E-06     292.935E-06
             402             420     88.1671E-06    -467.075E-06     107.108E-06     116.121E-06
             402             421     82.6403E-06    -455.574E-06     106.015E-06     126.981E-06
             403             406     119.479E-06    -871.924E-06     189.668E-06     292.935E-06
             403             407     104.278E-06    -838.106E-06     185.882E-06     311.070E-06
             403             421     82.6403E-06    -455.574E-06     106.015E-06     126.981E-06
             403             422     77.4618E-06    -441.765E-06     105.433E-06     138.170E-06
             404             407     104.278E-06    -838.106E-06     185.882E-06     311.070E-06
             404             408     91.7646E-06    -801.781E-06     183.260E-06     328.753E-06
             404             422     77.4618E-06    -441.765E-06     105.433E-06     138.170E-06
             404             423     69.3388E-06    -427.574E-06     103.740E-06     147.437E-06
             405             408     91.7646E-06    -801.781E-06     183.260E-06     328.753E-06
             405             409     75.5258E-06    -764.288E-06     179.496E-06     344.220E-06
             405             423     69.3388E-06    -427.574E-06     103.740E-06     147.437E-06
             405             424     63.7681E-06    -411.658E-06     103.020E-06     156.244E-06
             406             409     75.5258E-06    -764.288E-06     179.496E-06     344.220E-06
             406             410     64.4373E-06    -724.911E-06     177.546E-06     359.754E-06
             406             424     63.7681E-06    -411.658E-06     103.020E-06     156.244E-06
             406             425     53.0755E-06    -394.712E-06     100.724E-06     162.719E-06
             407             410     64.4373E-06    -724.911E-06     177.546E-06     359.754E-06
             407             411     48.5710E-06    -677.944E-06     176.113E-06     373.485E-06
             407             425     53.0755E-06    -394.712E-06     100.724E-06     162.719E-06
             407             426     45.2715E-06    -381.701E-06     97.8002E-06     167.235E-06
             408              86     47.5271E-06    -375.588E-06     98.0361E-06     170.814E-06
             408              87     33.0742E-06    -653.368E-06     173.317E-06     377.463E-06
             408             411     48.5710E-06    -677.944E-06     176.113E-06     373.485E-06
             408             426     45.2715E-06    -381.701E-06     97.8002E-06     167.235E-06
             409              64     111.803E-06    -518.886E-06     111.621E-06     10.7375E-06
             409              65     58.4480E-06    -263.214E-06     58.3063E-06     2.56403E-06
             409             412     110.817E-06    -518.285E-06     111.190E-06     15.5299E-06
             409             427     58.7289E-06    -262.747E-06     58.5742E-06     6.28489E-06
             410             412     110.817E-06    -518.285E-06     111.190E-06     15.5299E-06
             410             413     109.890E-06    -516.130E-06     110.903E-06     27.7573E-06
             410             427     58.7289E-06    -262.747E-06     58.5742E-06     6.28489E-06
             410             428     58.1349E-06    -261.956E-06     58.5377E-06     12.1724E-06
             411             413     109.890E-06    -516.130E-06     110.903E-06     27.7573E-06
             411             414     108.335E-06    -512.937E-06     110.567E-06     41.1011E-06
             411             428     58.1349E-06    -261.956E-06     58.5377E-06     12.1724E-06
             411             429     57.5009E-06    -260.583E-06     58.4188E-06     17.8341E-06
             412             414     108.335E-06    -512.937E-06     110.567E-06     41.1011E-06
             412             415     106.274E-06    -508.380E-06     110.191E-06     54.2007E-06
             412             429     57.5009E-06    -260.583E-06     58.4188E-06     17.8341E-06
             412             430     56.6022E-06    -258.798E-06     58.2192E-06     23.6214E-06
             413             415     106.274E-06    -508.380E-06     110.191E-06     54.2007E-06
             413             416     103.610E-06    -502.616E-06     109.691E-06     67.1786E-06
             413             430     56.6022E-06    -258.798E-06     58.2192E-06     23.6214E-06
             413             431     55.5130E-06    -256.475E-06     58.0009E-06     29.2445E-06
             414             416     103.610E-06    -502.616E-06     109.691E-06     67.1786E-06
             414             417     100.588E-06    -495.671E-06     109.149E-06     79.8176E-06
             414             431     55.5130E-06    -256.475E-06     58.0009E-06     29.2445E-06
             414             432     54.0431E-06    -253.616E-06     57.6969E-06     34.8012E-06
             415             417     100.588E-06    -495.671E-06     109.149E-06     79.8176E-06
             415             418     96.8469E-06    -487.340E-06     108.515E-06     92.2843E-06
             415             432     54.0431E-06    -253.616E-06     57.6969E-06     34.8012E-06
             415             433     52.4918E-06    -250.378E-06     57.3547E-06     40.0467E-06
             416             418     96.8469E-06    -487.340E-06     108.515E-06     92.2843E-06
             416             419     92.8057E-06    -478.100E-06     107.776E-06     104.176E-06
             416             433     52.4918E-06    -250.378E-06     57.3547E-06     40.0467E-06
             416             434     50.5432E-06    -246.438E-06     56.9772E-06     45.2705E-06
             417             419     92.8057E-06    -478.100E-06     107.776E-06     104.176E-06
             417             420     88.1671E-06    -467.075E-06     107.108E-06     116.121E-06
             417             434     50.5432E-06    -246.438E-06     56.9772E-06     45.2705E-06
             417             435     48.4007E-06    -242.480E-06     56.4198E-06     49.8134E-06
             418             420     88.1671E-06    -467.075E-06     107.108E-06     116.121E-06
             418             421     82.6403E-06    -455.574E-06     106.015E-06     126.981E-06
             418             435     48.4007E-06    -242.480E-06     56.4198E-06     49.8134E-06
             418             436     46.3873E-06    -237.542E-06     56.0873E-06     54.6004E-06
             419             421     82.6403E-06    -455.574E-06     106.015E-06     126.981E-06
             419             422     77.4618E-06    -441.765E-06     105.433E-06     138.170E-06
             419             436     46.3873E-06    -237.542E-06     56.0873E-06     54.6004E-06
             419             437     43.3688E-06    -233.173E-06     55.1649E-06     58.2610E-06
             420             422     77.4618E-06    -441.765E-06     105.433E-06     138.170E-06
             420             423     69.3388E-06    -427.574E-06     103.740E-06     147.437E-06
             420             437     43.3688E-06    -233.173E-06     55.1649E-06     58.2610E-06
             420             438     42.2740E-06    -227.935E-06     55.0207E-06     62.5855E-06
             421             423     69.3388E-06    -427.574E-06     103.740E-06     147.437E-06
             421             424     63.7681E-06    -411.658E-06     103.020E-06     156.244E-06
             421             438     42.2740E-06    -227.935E-06     55.0207E-06     62.5855E-06
             421             439     38.5108E-06    -223.377E-06     53.8043E-06     66.1871E-06
             422             424     63.7681E-06    -411.658E-06     103.020E-06     156.244E-06
             422             425     53.0755E-06    -394.712E-06     100.724E-06     162.719E-06
             422             439     38.5108E-06    -223.377E-06     53.8043E-06     66.1871E-06
             422             440     38.7987E-06    -219.042E-06     53.7336E-06     70.3999E-06
             423             425     53.0755E-06    -394.712E-06     100.724E-06     162.719E-06
             423             426     45.2715E-06    -381.701E-06     97.8002E-06     167.235E-06
             423             440     38.7987E-06    -219.042E-06     53.7336E-06     70.3999E-06
             423             441     36.8452E-06    -211.281E-06     54.0378E-06     75.5306E-06
             424              85     30.7052E-06    -207.120E-06     52.6995E-06     76.9380E-06
             424              86     47.5271E-06    -375.588E-06     98.0361E-06     170.814E-06
             424             426     45.2715E-06    -381.701E-06     97.8002E-06     167.235E-06
             424             441     36.8452E-06    -211.281E-06     54.0378E-06     75.5306E-06
             425              65     58.4480E-06    -263.214E-06     58.3063E-06     2.56403E-06
             425              66     27.1711E-06    -138.689E-06     27.0604E-06     2.80565E-06
             425             427     58.7289E-06    -262.747E-06     58.5742E-06     6.28489E-06
             425             442     26.6480E-06    -138.677E-06     26.7781E-06     2.93741E-06
             426             427     58.7289E-06    -262.747E-06     58.5742E-06     6.28489E-06
             426             428     58.1349E-06    -261.956E-06     58.5377E-06     12.1724E-06
             426             442     26.6480E-06    -138.677E-06     26.7781E-06     2.93741E-06
             426             443     26.5572E-06    -138.276E-06     26.6922E-06     4.85002E-06
             427             428     58.1349E-06    -261.956E-06     58.5377E-06     12.1724E-06
             427             429     57.5009E-06    -260.583E-06     58.4188E-06     17.8341E-06
             427             443     26.5572E-06    -138.276E-06     26.6922E-06     4.85002E-06
             427             444     26.3035E-06    -137.836E-06     26.6261E-06     7.27990E-06
             428             429     57.5009E-06    -260.583E-06     58.4188E-06     17.8341E-06
             428             430     56.6022E-06    -258.798E-06     58.2192E-06     23.6214E-06
             428             444     26.3035E-06    -137.836E-06     26.6261E-06     7.27990E-06
             428             445     25.9929E-06    -137.161E-06     26.5689E-06     9.57052E-06
             429             430     56.6022E-06    -258.798E-06     58.2192E-06     23.6214E-06
             429             431     55.5130E-06    -256.475E-06     58.0009E-06     29.2445E-06
             429             445     25.9929E-06    -137.161E-06     26.5689E-06     9.57052E-06
             429             446     25.5616E-06    -136.351E-06     26.4694E-06     11.9064E-06
             430             431     55.5130E-06    -256.475E-06     58.0009E-06     29.2445E-06
             430             432     54.0431E-06    -253.616E-06     57.6969E-06     34.8012E-06
             430             446     25.5616E-06    -136.351E-06     26.4694E-06     11.9064E-06
             430             447     25.1701E-06    -135.410E-06     26.3836E-06     14.1504E-06
             431             432     54.0431E-06    -253.616E-06     57.6969E-06     34.8012E-06
             431             433     52.4918E-06    -250.378E-06     57.3547E-06     40.0467E-06
             431             447     25.1701E-06    -135.410E-06     26.3836E-06     14.1504E-06
             431             448     24.5911E-06    -134.261E-06     26.2666E-06     16.4826E-06
             432             433     52.4918E-06    -250.378E-06     57.3547E-06     40.0467E-06
             432             434     50.5432E-06    -246.438E-06     56.9772E-06     45.2705E-06
             432             448     24.5911E-06    -134.261E-06     26.2666E-06     16.4826E-06
             432             449     24.0876E-06    -133.163E-06     26.1233E-06     18.6034E-06
             433             434     50.5432E-06    -246.438E-06     56.9772E-06     45.2705E-06
             433             435     48.4007E-06    -242.480E-06     56.4198E-06     49.8134E-06
             433             449     24.0876E-06    -133.163E-06     26.1233E-06     18.6034E-06
             433             450     23.5557E-06    -131.649E-06     26.0705E-06     21.0670E-06
             434             435     48.4007E-06    -242.480E-06     56.4198E-06     49.8134E-06
             434             436     46.3873E-06    -237.542E-06     56.0873E-06     54.6004E-06
             434             450     23.5557E-06    -131.649E-06     26.0705E-06     21.0670E-06
             434             451     22.6978E-06    -130.489E-06     25.7790E-06     23.0269E-06
             435             436     46.3873E-06    -237.542E-06     56.0873E-06     54.6004E-06
             435             437     43.3688E-06    -233.173E-06     55.1649E-06     58.2610E-06
             435             451     22.6978E-06    -130.489E-06     25.7790E-06     23.0269E-06
             435             452     22.5915E-06    -128.473E-06     25.9528E-06     25.6832E-06
             436             437     43.3688E-06    -233.173E-06     55.1649E-06     58.2610E-06
             436             438     42.2740E-06    -227.935E-06     55.0207E-06     62.5855E-06
             436             452     22.5915E-06    -128.473E-06     25.9528E-06     25.6832E-06
             436             453     20.7092E-06    -126.804E-06     25.4342E-06     27.5207E-06
             437             438     42.2740E-06    -227.935E-06     55.0207E-06     62.5855E-06
             437             439     38.5108E-06    -223.377E-06     53.8043E-06     66.1871E-06
             437             453     20.7092E-06    -126.804E-06     25.4342E-06     27.5207E-06
             437             454     20.9934E-06    -124.009E-06     25.8589E-06     29.7879E-06
             438             439     38.5108E-06    -223.377E-06     53.8043E-06     66.1871E-06
             438             440     38.7987E-06    -219.042E-06     53.7336E-06     70.3999E-06
             438             454     20.9934E-06    -124.009E-06     25.8589E-06     29.7879E-06
             438             455     17.7061E-06    -120.614E-06     25.2956E-06     31.5243E-06
             439             440     38.7987E-06    -219.042E-06     53.7336E-06     70.3999E-06
             439             441     36.8452E-06    -211.281E-06     54.0378E-06     75.5306E-06
             439             455     17.7061E-06    -120.614E-06     25.2956E-06     31.5243E-06
             439             456     15.8910E-06    -119.279E-06     24.4293E-06     32.0724E-06
             440              84     19.2587E-06    -118.548E-06     25.2891E-06     33.1355E-06
             440              85     30.7052E-06    -207.120E-06     52.6995E-06     76.9380E-06
             440             441     36.8452E-06    -211.281E-06     54.0378E-06     75.5306E-06
             440             456     15.8910E-06    -119.279E-06     24.4293E-06     32.0724E-06
             441              66     27.1711E-06    -138.689E-06     27.0604E-06     2.80565E-06
             441              67     3.42676E-06    -79.6164E-06     3.33969E-06    -326.924E-09
             441             442     26.6480E-06    -138.677E-06     26.7781E-06     2.93741E-06
             441             457     3.76344E-06    -79.4200E-06     3.58246E-06     943.203E-09
             442             442     26.6480E-06    -138.677E-06     26.7781E-06     2.93741E-06
             442             443     26.5572E-06    -138.276E-06     26.6922E-06     4.85002E-06
             442             457     3.76344E-06    -79.4200E-06     3.58246E-06     943.203E-09
             442             458     3.60332E-06    -79.3212E-06     3.63273E-06     2.19917E-06
             443             443     26.5572E-06    -138.276E-06     26.6922E-06     4.85002E-06
             443             444     26.3035E-06    -137.836E-06     26.6261E-06     7.27990E-06
             443             458     3.60332E-06    -79.3212E-06     3.63273E-06     2.19917E-06
             443             459     3.54558E-06    -79.1133E-06     3.64140E-06     3.14785E-06
             444             444     26.3035E-06    -137.836E-06     26.6261E-06     7.27990E-06
             444             445     25.9929E-06    -137.161E-06     26.5689E-06     9.57052E-06
             444             459     3.54558E-06    -79.1133E-06     3.64140E-06     3.14785E-06
             444             460     3.45059E-06    -78.8890E-06     3.62833E-06     4.21699E-06
             445             445     25.9929E-06    -137.161E-06     26.5689E-06     9.57052E-06
             445             446     25.5616E-06    -136.351E-06     26.4694E-06     11.9064E-06
             445             460     3.45059E-06    -78.8890E-06     3.62833E-06     4.21699E-06
             445             461     3.36556E-06    -78.5614E-06     3.63583E-06     5.22016E-06
             446             446     25.5616E-06    -136.351E-06     26.4694E-06     11.9064E-06
             446             447     25.1701E-06    -135.410E-06     26.3836E-06     14.1504E-06
             446             461     3.36556E-06    -78.5614E-06     3.63583E-06     5.22016E-06
             446             462     3.15954E-06    -78.1301E-06     3.61775E-06     6.26990E-06
             447             447     25.1701E-06    -135.410E-06     26.3836E-06     14.1504E-06
             447             448     24.5911E-06    -134.261E-06     26.2666E-06     16.4826E-06
             447             462     3.15954E-06    -78.1301E-06     3.61775E-06     6.26990E-06
             447             463     3.01567E-06    -77.6349E-06     3.61701E-06     7.20335E-06
             448             448     24.5911E-06    -134.261E-06     26.2666E-06     16.4826E-06
             448             449     24.0876E-06    -133.163E-06     26.1233E-06     18.6034E-06
             448             463     3.01567E-06    -77.6349E-06     3.61701E-06     7.20335E-06
             448             464     2.72910E-06    -76.8963E-06     3.62364E-06     8.28615E-06
             449             449     24.0876E-06    -133.163E-06     26.1233E-06     18.6034E-06
             449             450     23.5557E-06    -131.649E-06     26.0705E-06     21.0670E-06
             449             464     2.72910E-06    -76.8963E-06     3.62364E-06     8.28615E-06
             449             465     2.35344E-06    -76.2506E-06     3.54552E-06     9.03248E-06
             450             450     23.5557E-06    -131.649E-06     26.0705E-06     21.0670E-06
             450             451     22.6978E-06    -130.489E-06     25.7790E-06     23.0269E-06
             450             465     2.35344E-06    -76.2506E-06     3.54552E-06     9.03248E-06
             450             466     2.18168E-06    -75.1139E-06     3.65303E-06     10.1864E-06
             451             451     22.6978E-06    -130.489E-06     25.7790E-06     23.0269E-06
             451             452     22.5915E-06    -128.473E-06     25.9528E-06     25.6832E-06
             451             466     2.18168E-06    -75.1139E-06     3.65303E-06     10.1864E-06
             451             467     1.23068E-06    -74.4581E-06     3.34381E-06     10.6888E-06
             452             452     22.5915E-06    -128.473E-06     25.9528E-06     25.6832E-06
             452             453     20.7092E-06    -126.804E-06     25.4342E-06     27.5207E-06
             452             467     1.23068E-06    -74.4581E-06     3.34381E-06     10.6888E-06
             452             468     1.69767E-06    -73.2919E-06     3.60545E-06     11.8133E-06
             453             453     20.7092E-06    -126.804E-06     25.4342E-06     27.5207E-06
             453             454     20.9934E-06    -124.009E-06     25.8589E-06     29.7879E-06
             453             468     1.69767E-06    -73.2919E-06     3.60545E-06     11.8133E-06
             453             469     200.143E-09    -72.9871E-06     3.00407E-06     12.4233E-06
             454             454     20.9934E-06    -124.009E-06     25.8589E-06     29.7879E-06
             454             455     17.7061E-06    -120.614E-06     25.2956E-06     31.5243E-06
             454             469     200.143E-09    -72.9871E-06     3.00407E-06     12.4233E-06
             454             470     1.62427E-06    -72.9387E-06     3.23108E-06     13.1913E-06
             455             455     17.7061E-06    -120.614E-06     25.2956E-06     31.5243E-06
             455             456     15.8910E-06    -119.279E-06     24.4293E-06     32.0724E-06
             455             470     1.62427E-06    -72.9387E-06     3.23108E-06     13.1913E-06
             455             471     1.90893E-06    -71.3192E-06     3.65221E-06     14.9047E-06
             456              83    -1.55219E-06    -70.7107E-06     2.72092E-06     15.1281E-06
             456              84     19.2587E-06    -118.548E-06     25.2891E-06     33.1355E-06
             456             456     15.8910E-06    -119.279E-06     24.4293E-06     32.0724E-06
             456             471     1.90893E-06    -71.3192E-06     3.65221E-06     14.9047E-06
             457               5    -2.63198E-06    -56.9958E-06    -2.70869E-06     15.5112E-06
             457              67     3.42676E-06    -79.6164E-06     3.33969E-06    -326.924E-09
             457              68    -8.29082E-06    -59.6936E-06    -6.44564E-06     4.16449E-06
             457             457     3.76344E-06    -79.4200E-06     3.58246E-06     943.203E-09
             458              68    -8.29082E-06    -59.6936E-06    -6.44564E-06     4.16449E-06
             458              69    -7.30756E-06    -59.4946E-06    -7.32068E-06     595.485E-09
             458             457     3.76344E-06    -79.4200E-06     3.58246E-06     943.203E-09
             458             458     3.60332E-06    -79.3212E-06     3.63273E-06     2.19917E-06
             459              69    -7.30756E-06    -59.4946E-06    -7.32068E-06     595.485E-09
             459              70    -7.48923E-06    -59.4312E-06    -7.38066E-06     2.49607E-06
             459             458     3.60332E-06    -79.3212E-06     3.63273E-06     2.19917E-06
             459             459     3.54558E-06    -79.1133E-06     3.64140E-06     3.14785E-06
             460              70    -7.48923E-06    -59.4312E-06    -7.38066E-06     2.49607E-06
             460              71    -7.55509E-06    -59.2451E-06    -7.39586E-06     2.60600E-06
             460             459     3.54558E-06    -79.1133E-06     3.64140E-06     3.14785E-06
             460             460     3.45059E-06    -78.8890E-06     3.62833E-06     4.21699E-06
             461              71    -7.55509E-06    -59.2451E-06    -7.39586E-06     2.60600E-06
             461              72    -8.10396E-06    -59.2408E-06    -7.64576E-06     3.51383E-06
             461             460     3.45059E-06    -78.8890E-06     3.62833E-06     4.21699E-06
             461             461     3.36556E-06    -78.5614E-06     3.63583E-06     5.22016E-06
             462              72    -8.10396E-06    -59.2408E-06    -7.64576E-06     3.51383E-06
             462              73    -7.78396E-06    -58.8732E-06    -7.52760E-06     3.55397E-06
             462             461     3.36556E-06    -78.5614E-06     3.63583E-06     5.22016E-06
             462             462     3.15954E-06    -78.1301E-06     3.61775E-06     6.26990E-06
             463              73    -7.78396E-06    -58.8732E-06    -7.52760E-06     3.55397E-06
             463              74    -8.41798E-06    -58.8346E-06    -7.79263E-06     4.89062E-06
             463             462     3.15954E-06    -78.1301E-06     3.61775E-06     6.26990E-06
             463             463     3.01567E-06    -77.6349E-06     3.61701E-06     7.20335E-06
             464              74    -8.41798E-06    -58.8346E-06    -7.79263E-06     4.89062E-06
             464              75    -8.52634E-06    -58.7128E-06    -7.89811E-06     3.54374E-06
             464             463     3.01567E-06    -77.6349E-06     3.61701E-06     7.20335E-06
             464             464     2.72910E-06    -76.8963E-06     3.62364E-06     8.28615E-06
             465              75    -8.52634E-06    -58.7128E-06    -7.89811E-06     3.54374E-06
             465              76    -7.02959E-06    -57.7415E-06    -7.19697E-06     6.65943E-06
             465             464     2.72910E-06    -76.8963E-06     3.62364E-06     8.28615E-06
             465             465     2.35344E-06    -76.2506E-06     3.54552E-06     9.03248E-06
             466              76    -7.02959E-06    -57.7415E-06    -7.19697E-06     6.65943E-06
             466              77    -10.1307E-06    -58.9773E-06    -8.58652E-06     2.94360E-06
             466             465     2.35344E-06    -76.2506E-06     3.54552E-06     9.03248E-06
             466             466     2.18168E-06    -75.1139E-06     3.65303E-06     10.1864E-06
             467              77    -10.1307E-06    -58.9773E-06    -8.58652E-06     2.94360E-06
             467              78    -1.61987E-06    -54.9709E-06    -4.74709E-06     8.93572E-06
             467             466     2.18168E-06    -75.1139E-06     3.65303E-06     10.1864E-06
             467             467     1.23068E-06    -74.4581E-06     3.34381E-06     10.6888E-06
             468              78    -1.61987E-06    -54.9709E-06    -4.74709E-06     8.93572E-06
             468              79    -11.9063E-06    -58.8513E-06    -8.97138E-06     5.37660E-06
             468             467     1.23068E-06    -74.4581E-06     3.34381E-06     10.6888E-06
             468             468     1.69767E-06    -73.2919E-06     3.60545E-06     11.8133E-06
             469              79    -11.9063E-06    -58.8513E-06    -8.97138E-06     5.37660E-06
             469              80     5.00832E-06    -50.8809E-06    -1.34713E-06     10.9255E-06
             469             468     1.69767E-06    -73.2919E-06     3.60545E-06     11.8133E-06
             469             469     200.143E-09    -72.9871E-06     3.00407E-06     12.4233E-06
             470              80     5.00832E-06    -50.8809E-06    -1.34713E-06     10.9255E-06
             470              81    -11.0201E-06    -55.6788E-06    -7.44325E-06     16.1890E-06
             470             469     200.143E-09    -72.9871E-06     3.00407E-06     12.4233E-06
             470             470     1.62427E-06    -72.9387E-06     3.23108E-06     13.1913E-06
             471              81    -11.0201E-06    -55.6788E-06    -7.44325E-06     16.1890E-06
             471              82    -21.3747E-06    -59.7666E-06    -12.3338E-06     1.13060E-06
             471             470     1.62427E-06    -72.9387E-06     3.23108E-06     13.1913E-06
             471             471     1.90893E-06    -71.3192E-06     3.65221E-06     14.9047E-06
             472               6     16.4562E-06    -44.4586E-06     3.21608E-06     304.699E-09
             472              82    -21.3747E-06    -59.7666E-06    -12.3338E-06     1.13060E-06
             472              83    -1.55219E-06    -70.7107E-06     2.72092E-06     15.1281E-06
             472             471     1.90893E-06    -71.3192E-06     3.65221E-06     14.9047E-06


Field Output reported at element nodes for region: I_SAMPLE.Region_2
   Computation algorithm: EXTRAPOLATE_COMPUTE_AVERAGE
   Averaged at nodes
   Averaging regions: ODB_REGIONS

         Element            Node           S.S11           S.S22           S.S33           S.S12
           Label           Label          @Loc 1          @Loc 1          @Loc 1          @Loc 1
-------------------------------------------------------------------------------------------------
              84             487     90.9134E-06    -800.694E-06     35.4226E-06    -1.83134E-03
              84             489     1.12020E-03     1.31193E-03    -2.23486E-03    -3.59639E-03
              84             503     1.07203E-03     426.745E-06    -1.83999E-03    -3.09230E-03
              85             485     58.4730E-06    -1.04220E-03     3.68338E-03     503.829E-06
              85             488    -319.355E-06    -1.26868E-03     1.21296E-03     326.740E-06
              85             494     840.450E-06     929.869E-06     2.50613E-03    -613.797E-06
              86             502    -710.697E-06    -505.552E-06     604.744E-06    -958.301E-06
              86             509    -815.120E-06     42.5059E-06     748.325E-06    -913.413E-06
              86             512    -876.162E-06    -496.564E-06     717.770E-06    -814.386E-06
              87             481    -371.861E-06     109.794E-06     1.08339E-03    -364.485E-06
              87             491    -372.591E-06     148.596E-06     1.02121E-03    -631.329E-06
              87             496    -170.165E-06     95.3514E-06     1.23499E-03    -411.694E-06
              88             477     1.03625E-03     2.49678E-03    -3.03850E-03    -4.07818E-03
              88             489     1.12020E-03     1.31193E-03    -2.23486E-03    -3.59639E-03
              88             495     638.554E-06     1.06441E-03    -860.539E-06    -2.99843E-03
             473              36     3.90846E-03    -1.20766E-03     1.75337E-03    -1.92993E-06
             473              37     3.48489E-03     624.099E-06     4.88222E-03     2.83232E-03
             473             478     3.48489E-03    -1.71356E-03     4.51725E-03     2.39078E-03
             473             479     1.70567E-03    -2.54911E-03     1.10680E-03     704.977E-06
             474              33     2.63255E-03    -47.1055E-06    -1.91559E-03    -5.46730E-03
             474              34     2.97907E-03    -1.91949E-03    -3.01778E-03    -4.96591E-03
             474             475     2.13014E-03    -433.257E-06    -2.23351E-03    -3.89053E-03
             474             492     2.16013E-03     821.399E-06    -2.72162E-03    -4.68200E-03
             475              34     2.97907E-03    -1.91949E-03    -3.01778E-03    -4.96591E-03
             475              35     3.49263E-03    -3.39997E-03    -3.19568E-03    -3.35027E-03
             475             475     2.13014E-03    -433.257E-06    -2.23351E-03    -3.89053E-03
             475             490     2.35231E-03    -1.94910E-03    -1.15685E-03    -2.23005E-03
             476             101     1.13490E-03    -125.930E-06     1.90103E-03    -202.356E-06
             476             102     744.148E-06     24.4656E-06     1.74769E-03    -266.468E-06
             476             472     603.481E-06    -141.639E-06     1.70436E-03    -322.823E-06
             476             493     375.890E-06    -88.2717E-06     1.54018E-03    -445.211E-06
             477             124     431.308E-06     1.27656E-03    -382.593E-06    -2.52430E-03
             477             125     143.186E-06     548.197E-06     534.935E-06    -1.52587E-03
             477             482     12.7650E-06    -141.348E-06     162.754E-06    -1.73687E-03
             477             495     638.554E-06     1.06441E-03    -860.539E-06    -2.99843E-03
             478             100     1.50437E-03     249.561E-06     2.81428E-03    -273.967E-06
             478             101     1.13490E-03    -125.930E-06     1.90103E-03    -202.356E-06
             478             472     603.481E-06    -141.639E-06     1.70436E-03    -322.823E-06
             478             494     840.450E-06     929.869E-06     2.50613E-03    -613.797E-06
             479             474     81.8497E-06     9.92268E-06     1.37525E-03    -468.203E-06
             479             493     375.890E-06    -88.2717E-06     1.54018E-03    -445.211E-06
             479             501    -343.628E-06     43.0215E-06     1.11056E-03    -714.166E-06
             479             507    -252.312E-06    -207.891E-06     1.19901E-03    -764.609E-06
             480              32     1.91984E-03     918.257E-06    -1.64090E-03    -5.64509E-03
             480              33     2.63255E-03    -47.1055E-06    -1.91559E-03    -5.46730E-03
             480             483     1.67309E-03     1.60819E-03    -3.02087E-03    -4.99663E-03
             480             492     2.16013E-03     821.399E-06    -2.72162E-03    -4.68200E-03
             481             103     314.172E-06    -35.0484E-06     1.50874E-03    -267.912E-06
             481             104    -79.3074E-06     58.2611E-06     1.32196E-03    -234.761E-06
             481             474     81.8497E-06     9.92268E-06     1.37525E-03    -468.203E-06
             481             496    -170.165E-06     95.3514E-06     1.23499E-03    -411.694E-06
             482              35     3.49263E-03    -3.39997E-03    -3.19568E-03    -3.35027E-03
             482              36     3.90846E-03    -1.20766E-03     1.75337E-03    -1.92993E-06
             482             479     1.70567E-03    -2.54911E-03     1.10680E-03     704.977E-06
             482             490     2.35231E-03    -1.94910E-03    -1.15685E-03    -2.23005E-03
             483             102     744.148E-06     24.4656E-06     1.74769E-03    -266.468E-06
             483             103     314.172E-06    -35.0484E-06     1.50874E-03    -267.912E-06
             483             474     81.8497E-06     9.92268E-06     1.37525E-03    -468.203E-06
             483             493     375.890E-06    -88.2717E-06     1.54018E-03    -445.211E-06
             484             476    -422.123E-06    -26.7287E-06     614.064E-06    -1.07460E-03
             484             482     12.7650E-06    -141.348E-06     162.754E-06    -1.73687E-03
             484             487     90.9134E-06    -800.694E-06     35.4226E-06    -1.83134E-03
             484             502    -710.697E-06    -505.552E-06     604.744E-06    -958.301E-06
             485              99     1.19119E-03    -643.347E-06     6.31186E-03     285.466E-06
             485             100     1.50437E-03     249.561E-06     2.81428E-03    -273.967E-06
             485             485     58.4730E-06    -1.04220E-03     3.68338E-03     503.829E-06
             485             494     840.450E-06     929.869E-06     2.50613E-03    -613.797E-06
             486             472     603.481E-06    -141.639E-06     1.70436E-03    -322.823E-06
             486             493     375.890E-06    -88.2717E-06     1.54018E-03    -445.211E-06
             486             504    -305.020E-06    -592.548E-06     1.23369E-03    -322.473E-06
             486             507    -252.312E-06    -207.891E-06     1.19901E-03    -764.609E-06
             487             104    -79.3074E-06     58.2611E-06     1.32196E-03    -234.761E-06
             487             105    -378.220E-06    -3.61326E-06     1.10726E-03    -172.283E-06
             487             481    -371.861E-06     109.794E-06     1.08339E-03    -364.485E-06
             487             496    -170.165E-06     95.3514E-06     1.23499E-03    -411.694E-06
             488              31     1.45797E-03     1.85373E-03    -1.60857E-03    -5.61886E-03
             488              32     1.91984E-03     918.257E-06    -1.64090E-03    -5.64509E-03
             488             483     1.67309E-03     1.60819E-03    -3.02087E-03    -4.99663E-03
             488             484     1.27859E-03     2.34447E-03    -3.10638E-03    -4.99314E-03
             489               3     723.562E-06     2.82349E-03    -2.19787E-03    -5.33577E-03
             489              31     1.45797E-03     1.85373E-03    -1.60857E-03    -5.61886E-03
             489             122     700.621E-06     3.14414E-03    -3.38039E-03    -4.73909E-03
             489             484     1.27859E-03     2.34447E-03    -3.10638E-03    -4.99314E-03
             490             126    -154.936E-06     490.148E-06     621.842E-06    -986.376E-06
             490             127    -392.783E-06     451.941E-06     590.487E-06    -714.520E-06
             490             476    -422.123E-06    -26.7287E-06     614.064E-06    -1.07460E-03
             490             497    -592.023E-06     241.962E-06     675.877E-06    -823.725E-06
             491             129    -497.243E-06     292.257E-06     628.080E-06    -536.782E-06
             491             130    -525.806E-06     167.397E-06     671.117E-06    -417.928E-06
             491             480    -481.242E-06     147.443E-06     826.940E-06    -529.441E-06
             491             498    -562.588E-06     266.430E-06     761.871E-06    -682.582E-06
             492             125     143.186E-06     548.197E-06     534.935E-06    -1.52587E-03
             492             126    -154.936E-06     490.148E-06     621.842E-06    -986.376E-06
             492             476    -422.123E-06    -26.7287E-06     614.064E-06    -1.07460E-03
             492             482     12.7650E-06    -141.348E-06     162.754E-06    -1.73687E-03
             493             123     638.382E-06     2.72562E-03    -2.86871E-03    -3.67175E-03
             493             124     431.308E-06     1.27656E-03    -382.593E-06    -2.52430E-03
             493             477     1.03625E-03     2.49678E-03    -3.03850E-03    -4.07818E-03
             493             495     638.554E-06     1.06441E-03    -860.539E-06    -2.99843E-03
             494             130    -525.806E-06     167.397E-06     671.117E-06    -417.928E-06
             494             131    -629.642E-06     58.1673E-06     727.957E-06    -228.589E-06
             494             480    -481.242E-06     147.443E-06     826.940E-06    -529.441E-06
             494             486    -530.148E-06     50.9567E-06     894.899E-06    -287.323E-06
             495               4    -5.29568E-03     348.434E-06     4.04360E-03     3.57683E-03
             495              37    -5.29568E-03     624.099E-06     4.88222E-03     2.83232E-03
             495              98    -2.30561E-03    -981.037E-06     6.45478E-03     2.28811E-03
             495             478    -5.29568E-03    -1.71356E-03     4.51725E-03     2.39078E-03
             496             474     81.8497E-06     9.92268E-06     1.37525E-03    -468.203E-06
             496             491    -372.591E-06     148.596E-06     1.02121E-03    -631.329E-06
             496             496    -170.165E-06     95.3514E-06     1.23499E-03    -411.694E-06
             496             501    -343.628E-06     43.0215E-06     1.11056E-03    -714.166E-06
             497             122     700.621E-06     3.14414E-03    -3.38039E-03    -4.73909E-03
             497             123     638.382E-06     2.72562E-03    -2.86871E-03    -3.67175E-03
             497             477     1.03625E-03     2.49678E-03    -3.03850E-03    -4.07818E-03
             497             484     1.27859E-03     2.34447E-03    -3.10638E-03    -4.99314E-03
             498             105    -378.220E-06    -3.61326E-06     1.10726E-03    -172.283E-06
             498             106    -578.954E-06     14.0628E-06     933.498E-06    -151.675E-06
             498             481    -371.861E-06     109.794E-06     1.08339E-03    -364.485E-06
             498             486    -530.148E-06     50.9567E-06     894.899E-06    -287.323E-06
             499               7    -714.469E-06     14.0362E-06     759.185E-06    -117.927E-06
             499             106    -578.954E-06     14.0628E-06     933.498E-06    -151.675E-06
             499             131    -629.642E-06     58.1673E-06     727.957E-06    -228.589E-06
             499             486    -530.148E-06     50.9567E-06     894.899E-06    -287.323E-06
             500             504    -305.020E-06    -592.548E-06     1.23369E-03    -322.473E-06
             500             505    -634.986E-06    -1.47711E-03     771.774E-06    -406.650E-06
             500             507    -252.312E-06    -207.891E-06     1.19901E-03    -764.609E-06
             500             511    -704.019E-06    -272.277E-06     942.774E-06    -860.364E-06
             501             479     1.70567E-03    -2.54911E-03     1.10680E-03     704.977E-06
             501             488    -319.355E-06    -1.26868E-03     1.21296E-03     326.740E-06
             501             490     2.35231E-03    -1.94910E-03    -1.15685E-03    -2.23005E-03
             501             499     384.554E-06    -1.50205E-03     740.114E-06    -572.469E-06
             502              98    -2.30561E-03    -981.037E-06     6.45478E-03     2.28811E-03
             502              99     1.19119E-03    -643.347E-06     6.31186E-03     285.466E-06
             502             478     684.453E-06    -1.71356E-03     4.51725E-03     2.39078E-03
             502             485     58.4730E-06    -1.04220E-03     3.68338E-03     503.829E-06
             503             478    -2.43816E-03    -1.71356E-03     4.51725E-03     2.39078E-03
             503             479     1.70567E-03    -2.54911E-03     1.10680E-03     704.977E-06
             503             485     58.4730E-06    -1.04220E-03     3.68338E-03     503.829E-06
             503             488    -319.355E-06    -1.26868E-03     1.21296E-03     326.740E-06
             504             482     12.7650E-06    -141.348E-06     162.754E-06    -1.73687E-03
             504             487     90.9134E-06    -800.694E-06     35.4226E-06    -1.83134E-03
             504             489     1.12020E-03     1.31193E-03    -2.23486E-03    -3.59639E-03
             504             495     638.554E-06     1.06441E-03    -860.539E-06    -2.99843E-03
             505             127    -392.783E-06     451.941E-06     590.487E-06    -714.520E-06
             505             128    -470.271E-06     402.669E-06     604.248E-06    -618.741E-06
             505             473    -631.061E-06     305.010E-06     711.787E-06    -746.664E-06
             505             497    -592.023E-06     241.962E-06     675.877E-06    -823.725E-06
             506             476    -422.123E-06    -26.7287E-06     614.064E-06    -1.07460E-03
             506             497    -592.023E-06     241.962E-06     675.877E-06    -823.725E-06
             506             502    -710.697E-06    -505.552E-06     604.744E-06    -958.301E-06
             506             509    -815.120E-06     42.5059E-06     748.325E-06    -913.413E-06
             507             128    -470.271E-06     402.669E-06     604.248E-06    -618.741E-06
             507             129    -497.243E-06     292.257E-06     628.080E-06    -536.782E-06
             507             473    -631.061E-06     305.010E-06     711.787E-06    -746.664E-06
             507             498    -562.588E-06     266.430E-06     761.871E-06    -682.582E-06
             508             473    -631.061E-06     305.010E-06     711.787E-06    -746.664E-06
             508             497    -592.023E-06     241.962E-06     675.877E-06    -823.725E-06
             508             500    -612.536E-06     99.4572E-06     880.078E-06    -862.762E-06
             508             509    -815.120E-06     42.5059E-06     748.325E-06    -913.413E-06
             509             473    -631.061E-06     305.010E-06     711.787E-06    -746.664E-06
             509             498    -562.588E-06     266.430E-06     761.871E-06    -682.582E-06
             509             500    -612.536E-06     99.4572E-06     880.078E-06    -862.762E-06
             509             510    -540.589E-06     241.222E-06     887.986E-06    -778.895E-06
             510             488    -319.355E-06    -1.26868E-03     1.21296E-03     326.740E-06
             510             499     384.554E-06    -1.50205E-03     740.114E-06    -572.469E-06
             510             504    -305.020E-06    -592.548E-06     1.23369E-03    -322.473E-06
             510             505    -634.986E-06    -1.47711E-03     771.774E-06    -406.650E-06
             511             500    -612.536E-06     99.4572E-06     880.078E-06    -862.762E-06
             511             501    -343.628E-06     43.0215E-06     1.11056E-03    -714.166E-06
             511             507    -252.312E-06    -207.891E-06     1.19901E-03    -764.609E-06
             511             511    -704.019E-06    -272.277E-06     942.774E-06    -860.364E-06
             512             475     2.13014E-03    -433.257E-06    -2.23351E-03    -3.89053E-03
             512             490     2.35231E-03    -1.94910E-03    -1.15685E-03    -2.23005E-03
             512             499     384.554E-06    -1.50205E-03     740.114E-06    -572.469E-06
             512             508     601.268E-06    -615.721E-06    -582.518E-06    -2.05723E-03
             513             499     384.554E-06    -1.50205E-03     740.114E-06    -572.469E-06
             513             505    -634.986E-06    -1.47711E-03     771.774E-06    -406.650E-06
             513             506    -430.211E-06    -1.61951E-03     475.460E-06    -980.091E-06
             513             508     601.268E-06    -615.721E-06    -582.518E-06    -2.05723E-03
             514             487     90.9134E-06    -800.694E-06     35.4226E-06    -1.83134E-03
             514             503     1.07203E-03     426.745E-06    -1.83999E-03    -3.09230E-03
             514             506    -430.211E-06    -1.61951E-03     475.460E-06    -980.091E-06
             514             508     601.268E-06    -615.721E-06    -582.518E-06    -2.05723E-03
             515             505    -634.986E-06    -1.47711E-03     771.774E-06    -406.650E-06
             515             506    -430.211E-06    -1.61951E-03     475.460E-06    -980.091E-06
             515             511    -704.019E-06    -272.277E-06     942.774E-06    -860.364E-06
             515             512    -876.162E-06    -496.564E-06     717.770E-06    -814.386E-06
             516             480    -481.242E-06     147.443E-06     826.940E-06    -529.441E-06
             516             481    -371.861E-06     109.794E-06     1.08339E-03    -364.485E-06
             516             486    -530.148E-06     50.9567E-06     894.899E-06    -287.323E-06
             516             491    -372.591E-06     148.596E-06     1.02121E-03    -631.329E-06
             517             483     1.67309E-03     1.60819E-03    -3.02087E-03    -4.99663E-03
             517             489     1.12020E-03     1.31193E-03    -2.23486E-03    -3.59639E-03
             517             492     2.16013E-03     821.399E-06    -2.72162E-03    -4.68200E-03
             517             503     1.07203E-03     426.745E-06    -1.83999E-03    -3.09230E-03
             518             491    -372.591E-06     148.596E-06     1.02121E-03    -631.329E-06
             518             500    -612.536E-06     99.4572E-06     880.078E-06    -862.762E-06
             518             501    -343.628E-06     43.0215E-06     1.11056E-03    -714.166E-06
             518             510    -540.589E-06     241.222E-06     887.986E-06    -778.895E-06
             519             475     2.13014E-03    -433.257E-06    -2.23351E-03    -3.89053E-03
             519             492     2.16013E-03     821.399E-06    -2.72162E-03    -4.68200E-03
             519             503     1.07203E-03     426.745E-06    -1.83999E-03    -3.09230E-03
             519             508     601.268E-06    -615.721E-06    -582.518E-06    -2.05723E-03
             520             477     1.03625E-03     2.49678E-03    -3.03850E-03    -4.07818E-03
             520             483     1.67309E-03     1.60819E-03    -3.02087E-03    -4.99663E-03
             520             484     1.27859E-03     2.34447E-03    -3.10638E-03    -4.99314E-03
             520             489     1.12020E-03     1.31193E-03    -2.23486E-03    -3.59639E-03
             521             472     603.481E-06    -141.639E-06     1.70436E-03    -322.823E-06
             521             488    -319.355E-06    -1.26868E-03     1.21296E-03     326.740E-06
             521             494     840.450E-06     929.869E-06     2.50613E-03    -613.797E-06
             521             504    -305.020E-06    -592.548E-06     1.23369E-03    -322.473E-06
             522             500    -612.536E-06     99.4572E-06     880.078E-06    -862.762E-06
             522             509    -815.120E-06     42.5059E-06     748.325E-06    -913.413E-06
             522             511    -704.019E-06    -272.277E-06     942.774E-06    -860.364E-06
             522             512    -876.162E-06    -496.564E-06     717.770E-06    -814.386E-06
             523             487     90.9134E-06    -800.694E-06     35.4226E-06    -1.83134E-03
             523             502    -710.697E-06    -505.552E-06     604.744E-06    -958.301E-06
             523             506    -430.211E-06    -1.61951E-03     475.460E-06    -980.091E-06
             523             512    -876.162E-06    -496.564E-06     717.770E-06    -814.386E-06
             524             480    -481.242E-06     147.443E-06     826.940E-06    -529.441E-06
             524             491    -372.591E-06     148.596E-06     1.02121E-03    -631.329E-06
             524             498    -562.588E-06     266.430E-06     761.871E-06    -682.582E-06
             524             510    -540.589E-06     241.222E-06     887.986E-06    -778.895E-06
             525               6    -11.4349E-06    -43.4485E-06    -7.13426E-06     15.0676E-06
             525              83    -5.14433E-06    -56.0214E-06     1.53708E-06     21.4343E-06
             525             132    -12.3610E-06    -33.0347E-06    -5.55229E-06     16.1008E-06
             525             513    -9.58427E-06    -41.9615E-06     1.70067E-06     22.9040E-06
             526             132    -12.3610E-06    -33.0347E-06    -5.55229E-06     16.1008E-06
             526             133    -14.4453E-06    -12.7645E-06    -2.60032E-06     15.2651E-06
             526             513    -9.58427E-06    -41.9615E-06     1.70067E-06     22.9040E-06
             526             514    -15.8010E-06    -15.4266E-06     2.42896E-06     20.8272E-06
             527             133    -14.4453E-06    -12.7645E-06    -2.60032E-06     15.2651E-06
             527             134    -12.8056E-06     2.99260E-06     380.036E-09     9.16264E-06
             527             514    -15.8010E-06    -15.4266E-06     2.42896E-06     20.8272E-06
             527             515    -16.2071E-06     4.51502E-06     3.43866E-06     11.3475E-06
             528             134    -12.8056E-06     2.99260E-06     380.036E-09     9.16264E-06
             528             135    -7.73180E-06     11.2187E-06     2.63484E-06     1.47209E-06
             528             515    -16.2071E-06     4.51502E-06     3.43866E-06     11.3475E-06
             528             516    -10.7975E-06     13.8088E-06     4.09416E-06     658.570E-09
             529             135    -7.73180E-06     11.2187E-06     2.63484E-06     1.47209E-06
             529             136    -1.29877E-06     11.8081E-06     3.59818E-06    -3.57972E-06
             529             516    -10.7975E-06     13.8088E-06     4.09416E-06     658.570E-09
             529             517    -2.80142E-06     13.7706E-06     4.07180E-06    -6.25231E-06
             530             136    -1.29877E-06     11.8081E-06     3.59818E-06    -3.57972E-06
             530             137     3.48789E-06     8.01353E-06     3.33613E-06    -5.00131E-06
             530             517    -2.80142E-06     13.7706E-06     4.07180E-06    -6.25231E-06
             530             518     3.39455E-06     8.67769E-06     3.26655E-06    -7.69165E-06
             531             137     3.48789E-06     8.01353E-06     3.33613E-06    -5.00131E-06
             531             138     4.08262E-06     2.92350E-06     1.88394E-06    -2.93344E-06
             531             518     3.39455E-06     8.67769E-06     3.26655E-06    -7.69165E-06
             531             519     4.79919E-06     2.75456E-06     1.78464E-06    -4.81426E-06
             532             138     4.08262E-06     2.92350E-06     1.88394E-06    -2.93344E-06
             532             139     465.994E-09    -1.17619E-06    -211.920E-09     87.8172E-09
             532             519     4.79919E-06     2.75456E-06     1.78464E-06    -4.81426E-06
             532             520     708.316E-09    -1.36012E-06    -127.461E-09    -495.442E-09
             533             139     465.994E-09    -1.17619E-06    -211.920E-09     87.8172E-09
             533             140    -6.71405E-06    -3.14049E-06    -2.58708E-06     2.10545E-06
             533             520     708.316E-09    -1.36012E-06    -127.461E-09    -495.442E-09
             533             521    -7.51436E-06    -2.77971E-06    -2.13988E-06     2.45063E-06
             534             140    -6.71405E-06    -3.14049E-06    -2.58708E-06     2.10545E-06
             534             141    -14.3593E-06    -3.53901E-06    -4.59917E-06     1.45905E-06
             534             521    -7.51436E-06    -2.77971E-06    -2.13988E-06     2.45063E-06
             534             522    -16.5551E-06    -2.01075E-06    -3.70338E-06     2.39082E-06
             535               8    -18.4063E-06    -3.04140E-06    -5.46072E-06    -78.2777E-09
             535             121    -20.6300E-06    -1.24130E-06    -4.25705E-06     1.54233E-06
             535             141    -14.3593E-06    -3.53901E-06    -4.59917E-06     1.45905E-06
             535             522    -16.5551E-06    -2.01075E-06    -3.70338E-06     2.39082E-06
             536              83    -5.14433E-06    -56.0214E-06     1.53708E-06     21.4343E-06
             536              84     2.54556E-06    -90.8067E-06     18.5553E-06     43.9936E-06
             536             513    -9.58427E-06    -41.9615E-06     1.70067E-06     22.9040E-06
             536             523    -7.64520E-06    -65.6212E-06     16.6276E-06     45.1396E-06
             537             513    -9.58427E-06    -41.9615E-06     1.70067E-06     22.9040E-06
             537             514    -15.8010E-06    -15.4266E-06     2.42896E-06     20.8272E-06
             537             523    -7.64520E-06    -65.6212E-06     16.6276E-06     45.1396E-06
             537             524    -23.1824E-06    -19.8100E-06     13.0649E-06     37.9880E-06
             538             514    -15.8010E-06    -15.4266E-06     2.42896E-06     20.8272E-06
             538             515    -16.2071E-06     4.51502E-06     3.43866E-06     11.3475E-06
             538             524    -23.1824E-06    -19.8100E-06     13.0649E-06     37.9880E-06
             538             525    -26.4672E-06     11.2827E-06     10.1505E-06     18.7087E-06
             539             515    -16.2071E-06     4.51502E-06     3.43866E-06     11.3475E-06
             539             516    -10.7975E-06     13.8088E-06     4.09416E-06     658.570E-09
             539             525    -26.4672E-06     11.2827E-06     10.1505E-06     18.7087E-06
             539             526    -18.2429E-06     23.0826E-06     7.71578E-06    -674.227E-09
             540             516    -10.7975E-06     13.8088E-06     4.09416E-06     658.570E-09
             540             517    -2.80142E-06     13.7706E-06     4.07180E-06    -6.25231E-06
             540             526    -18.2429E-06     23.0826E-06     7.71578E-06    -674.227E-09
             540             527    -5.27732E-06     20.4413E-06     5.62984E-06    -12.0433E-06
             541             517    -2.80142E-06     13.7706E-06     4.07180E-06    -6.25231E-06
             541             518     3.39455E-06     8.67769E-06     3.26655E-06    -7.69165E-06
             541             527    -5.27732E-06     20.4413E-06     5.62984E-06    -12.0433E-06
             541             528     4.97594E-06     11.4536E-06     3.77976E-06    -13.6266E-06
             542             518     3.39455E-06     8.67769E-06     3.26655E-06    -7.69165E-06
             542             519     4.79919E-06     2.75456E-06     1.78464E-06    -4.81426E-06
             542             528     4.97594E-06     11.4536E-06     3.77976E-06    -13.6266E-06
             542             529     7.81528E-06     2.77897E-06     2.05189E-06    -8.46247E-06
             543             519     4.79919E-06     2.75456E-06     1.78464E-06    -4.81426E-06
             543             520     708.316E-09    -1.36012E-06    -127.461E-09    -495.442E-09
             543             529     7.81528E-06     2.77897E-06     2.05189E-06    -8.46247E-06
             543             530     2.45760E-06    -2.12006E-06     443.624E-09    -1.20981E-06
             544             520     708.316E-09    -1.36012E-06    -127.461E-09    -495.442E-09
             544             521    -7.51436E-06    -2.77971E-06    -2.13988E-06     2.45063E-06
             544             530     2.45760E-06    -2.12006E-06     443.624E-09    -1.20981E-06
             544             531    -8.90922E-06    -2.81923E-06    -1.01289E-06     3.95304E-06
             545             521    -7.51436E-06    -2.77971E-06    -2.13988E-06     2.45063E-06
             545             522    -16.5551E-06    -2.01075E-06    -3.70338E-06     2.39082E-06
             545             531    -8.90922E-06    -2.81923E-06    -1.01289E-06     3.95304E-06
             545             532    -21.5516E-06    -1.14794E-06    -2.14673E-06     4.46103E-06
             546             120    -27.5739E-06    -15.4849E-09    -2.62401E-06     3.27933E-06
             546             121    -20.6300E-06    -1.24130E-06    -4.25705E-06     1.54233E-06
             546             522    -16.5551E-06    -2.01075E-06    -3.70338E-06     2.39082E-06
             546             532    -21.5516E-06    -1.14794E-06    -2.14673E-06     4.46103E-06
             547              84     2.54556E-06    -90.8067E-06     18.5553E-06     43.9936E-06
             547              85     3.96414E-06    -152.242E-06     40.3363E-06     92.2608E-06
             547             523    -7.64520E-06    -65.6212E-06     16.6276E-06     45.1396E-06
             547             533    -15.7578E-06    -103.990E-06     35.5380E-06     90.0638E-06
             548             523    -7.64520E-06    -65.6212E-06     16.6276E-06     45.1396E-06
             548             524    -23.1824E-06    -19.8100E-06     13.0649E-06     37.9880E-06
             548             533    -15.7578E-06    -103.990E-06     35.5380E-06     90.0638E-06
             548             534    -43.0643E-06    -21.0253E-06     26.6856E-06     69.9764E-06
             549             524    -23.1824E-06    -19.8100E-06     13.0649E-06     37.9880E-06
             549             525    -26.4672E-06     11.2827E-06     10.1505E-06     18.7087E-06
             549             534    -43.0643E-06    -21.0253E-06     26.6856E-06     69.9764E-06
             549             535    -45.7392E-06     28.3744E-06     19.1651E-06     31.3486E-06
             550             525    -26.4672E-06     11.2827E-06     10.1505E-06     18.7087E-06
             550             526    -18.2429E-06     23.0826E-06     7.71578E-06    -674.227E-09
             550             535    -45.7392E-06     28.3744E-06     19.1651E-06     31.3486E-06
             550             536    -28.6862E-06     42.1499E-06     13.1750E-06    -2.68132E-06
             551             526    -18.2429E-06     23.0826E-06     7.71578E-06    -674.227E-09
             551             527    -5.27732E-06     20.4413E-06     5.62984E-06    -12.0433E-06
             551             536    -28.6862E-06     42.1499E-06     13.1750E-06    -2.68132E-06
             551             537    -5.88086E-06     33.4668E-06     8.73377E-06    -20.1133E-06
             552             527    -5.27732E-06     20.4413E-06     5.62984E-06    -12.0433E-06
             552             528     4.97594E-06     11.4536E-06     3.77976E-06    -13.6266E-06
             552             537    -5.88086E-06     33.4668E-06     8.73377E-06    -20.1133E-06
             552             538     10.4785E-06     17.3546E-06     5.58220E-06    -21.2194E-06
             553             528     4.97594E-06     11.4536E-06     3.77976E-06    -13.6266E-06
             553             529     7.81528E-06     2.77897E-06     2.05189E-06    -8.46247E-06
             553             538     10.4785E-06     17.3546E-06     5.58220E-06    -21.2194E-06
             553             539     14.6938E-06     3.72530E-06     3.41406E-06    -12.3232E-06
             554             529     7.81528E-06     2.77897E-06     2.05189E-06    -8.46247E-06
             554             530     2.45760E-06    -2.12006E-06     443.624E-09    -1.20981E-06
             554             539     14.6938E-06     3.72530E-06     3.41406E-06    -12.3232E-06
             554             540     6.45214E-06    -3.37015E-06     1.82848E-06    -1.03516E-06
             555             530     2.45760E-06    -2.12006E-06     443.624E-09    -1.20981E-06
             555             531    -8.90922E-06    -2.81923E-06    -1.01289E-06     3.95304E-06
             555             540     6.45214E-06    -3.37015E-06     1.82848E-06    -1.03516E-06
             555             541    -10.0632E-06    -4.28794E-06     656.963E-09     6.65516E-06
             556             531    -8.90922E-06    -2.81923E-06    -1.01289E-06     3.95304E-06
             556             532    -21.5516E-06    -1.14794E-06    -2.14673E-06     4.46103E-06
             556             541    -10.0632E-06    -4.28794E-06     656.963E-09     6.65516E-06
             556             542    -29.3587E-06    -2.25251E-06    -587.534E-09     6.79495E-06
             557             119    -38.8983E-06    -1.10606E-06    -1.31205E-06     4.66948E-06
             557             120    -27.5739E-06    -15.4849E-09    -2.62401E-06     3.27933E-06
             557             532    -21.5516E-06    -1.14794E-06    -2.14673E-06     4.46103E-06
             557             542    -29.3587E-06    -2.25251E-06    -587.534E-09     6.79495E-06
             558              85     3.96414E-06    -152.242E-06     40.3363E-06     92.2608E-06
             558              86    -10.1805E-06    -255.163E-06     74.0162E-06     188.263E-06
             558             533    -15.7578E-06    -103.990E-06     35.5380E-06     90.0638E-06
             558             543    -43.7527E-06    -162.156E-06     64.6879E-06     174.770E-06
             559             533    -15.7578E-06    -103.990E-06     35.5380E-06     90.0638E-06
             559             534    -43.0643E-06    -21.0253E-06     26.6856E-06     69.9764E-06
             559             543    -43.7527E-06    -162.156E-06     64.6879E-06     174.770E-06
             559             544    -85.1104E-06    -11.6342E-06     47.2087E-06     122.119E-06
             560             534    -43.0643E-06    -21.0253E-06     26.6856E-06     69.9764E-06
             560             535    -45.7392E-06     28.3744E-06     19.1651E-06     31.3486E-06
             560             544    -85.1104E-06    -11.6342E-06     47.2087E-06     122.119E-06
             560             545    -77.7536E-06     63.6813E-06     32.7250E-06     47.0503E-06
             561             535    -45.7392E-06     28.3744E-06     19.1651E-06     31.3486E-06
             561             536    -28.6862E-06     42.1499E-06     13.1750E-06    -2.68132E-06
             561             545    -77.7536E-06     63.6813E-06     32.7250E-06     47.0503E-06
             561             546    -41.2504E-06     75.2778E-06     21.6226E-06    -9.00868E-06
             562             536    -28.6862E-06     42.1499E-06     13.1750E-06    -2.68132E-06
             562             537    -5.88086E-06     33.4668E-06     8.73377E-06    -20.1133E-06
             562             546    -41.2504E-06     75.2778E-06     21.6226E-06    -9.00868E-06
             562             547    -2.34596E-06     54.5148E-06     13.9109E-06    -33.0645E-06
             563             537    -5.88086E-06     33.4668E-06     8.73377E-06    -20.1133E-06
             563             538     10.4785E-06     17.3546E-06     5.58220E-06    -21.2194E-06
             563             547    -2.34596E-06     54.5148E-06     13.9109E-06    -33.0645E-06
             563             548     21.8949E-06     27.0880E-06     9.02979E-06    -31.4234E-06
             564             538     10.4785E-06     17.3546E-06     5.58220E-06    -21.2194E-06
             564             539     14.6938E-06     3.72530E-06     3.41406E-06    -12.3232E-06
             564             548     21.8949E-06     27.0880E-06     9.02979E-06    -31.4234E-06
             564             549     26.0400E-06     6.16450E-06     6.06191E-06    -16.8757E-06
             565             539     14.6938E-06     3.72530E-06     3.41406E-06    -12.3232E-06
             565             540     6.45214E-06    -3.37015E-06     1.82848E-06    -1.03516E-06
             565             549     26.0400E-06     6.16450E-06     6.06191E-06    -16.8757E-06
             565             550     12.8764E-06    -4.50323E-06     4.36262E-06    -191.941E-09
             566             540     6.45214E-06    -3.37015E-06     1.82848E-06    -1.03516E-06
             566             541    -10.0632E-06    -4.28794E-06     656.963E-09     6.65516E-06
             566             550     12.8764E-06    -4.50323E-06     4.36262E-06    -191.941E-09
             566             551    -12.4163E-06    -6.21071E-06     3.09571E-06     10.4157E-06
             567             541    -10.0632E-06    -4.28794E-06     656.963E-09     6.65516E-06
             567             542    -29.3587E-06    -2.25251E-06    -587.534E-09     6.79495E-06
             567             551    -12.4163E-06    -6.21071E-06     3.09571E-06     10.4157E-06
             567             552    -41.4202E-06    -2.95977E-06     1.91709E-06     10.2461E-06
             568             118    -55.7425E-06    -614.232E-09     1.33485E-06     7.15528E-06
             568             119    -38.8983E-06    -1.10606E-06    -1.31205E-06     4.66948E-06
             568             542    -29.3587E-06    -2.25251E-06    -587.534E-09     6.79495E-06
             568             552    -41.4202E-06    -2.95977E-06     1.91709E-06     10.2461E-06
             569              86    -10.1805E-06    -255.163E-06     74.0162E-06     188.263E-06
             569              87    -66.3335E-06    -409.420E-06     127.777E-06     374.892E-06
             569             543    -43.7527E-06    -162.156E-06     64.6879E-06     174.770E-06
             569             553    -116.480E-06    -234.466E-06     110.689E-06     325.525E-06
             570             543    -43.7527E-06    -162.156E-06     64.6879E-06     174.770E-06
             570             544    -85.1104E-06    -11.6342E-06     47.2087E-06     122.119E-06
             570             553    -116.480E-06    -234.466E-06     110.689E-06     325.525E-06
             570             554    -162.562E-06     27.9912E-06     79.2343E-06     197.459E-06
             571             544    -85.1104E-06    -11.6342E-06     47.2087E-06     122.119E-06
             571             545    -77.7536E-06     63.6813E-06     32.7250E-06     47.0503E-06
             571             554    -162.562E-06     27.9912E-06     79.2343E-06     197.459E-06
             571             555    -123.597E-06     130.798E-06     53.4106E-06     59.2443E-06
             572             545    -77.7536E-06     63.6813E-06     32.7250E-06     47.0503E-06
             572             546    -41.2504E-06     75.2778E-06     21.6226E-06    -9.00868E-06
             572             555    -123.597E-06     130.798E-06     53.4106E-06     59.2443E-06
             572             556    -50.2862E-06     127.490E-06     34.4576E-06    -25.3583E-06
             573             546    -41.2504E-06     75.2778E-06     21.6226E-06    -9.00868E-06
             573             547    -2.34596E-06     54.5148E-06     13.9109E-06    -33.0645E-06
             573             556    -50.2862E-06     127.490E-06     34.4576E-06    -25.3583E-06
             573             557     10.3295E-06     85.1519E-06     22.0222E-06    -52.2475E-06
             574             547    -2.34596E-06     54.5148E-06     13.9109E-06    -33.0645E-06
             574             548     21.8949E-06     27.0880E-06     9.02979E-06    -31.4234E-06
             574             557     10.3295E-06     85.1519E-06     22.0222E-06    -52.2475E-06
             574             558     40.8571E-06     42.0824E-06     14.6041E-06    -44.7332E-06
             575             548     21.8949E-06     27.0880E-06     9.02979E-06    -31.4234E-06
             575             549     26.0400E-06     6.16450E-06     6.06191E-06    -16.8757E-06
             575             558     40.8571E-06     42.0824E-06     14.6041E-06    -44.7332E-06
             575             559     43.0387E-06     11.1153E-06     10.6505E-06    -22.2358E-06
             576             549     26.0400E-06     6.16450E-06     6.06191E-06    -16.8757E-06
             576             550     12.8764E-06    -4.50323E-06     4.36262E-06    -191.941E-09
             576             559     43.0387E-06     11.1153E-06     10.6505E-06    -22.2358E-06
             576             560     20.9215E-06    -4.63437E-06     8.43065E-06     1.30211E-06
             577             550     12.8764E-06    -4.50323E-06     4.36262E-06    -191.941E-09
             577             551    -12.4163E-06    -6.21071E-06     3.09571E-06     10.4157E-06
             577             560     20.9215E-06    -4.63437E-06     8.43065E-06     1.30211E-06
             577             561    -16.6684E-06    -7.47212E-06     7.13605E-06     15.7594E-06
             578             551    -12.4163E-06    -6.21071E-06     3.09571E-06     10.4157E-06
             578             552    -41.4202E-06    -2.95977E-06     1.91709E-06     10.2461E-06
             578             561    -16.6684E-06    -7.47212E-06     7.13605E-06     15.7594E-06
             578             562    -59.5275E-06    -3.96564E-06     5.65564E-06     15.0857E-06
             579             117    -80.7729E-06    -1.74746E-06     4.72533E-06     10.3110E-06
             579             118    -55.7425E-06    -614.232E-09     1.33485E-06     7.15528E-06
             579             552    -41.4202E-06    -2.95977E-06     1.91709E-06     10.2461E-06
             579             562    -59.5275E-06    -3.96564E-06     5.65564E-06     15.0857E-06
             580              87    -66.3335E-06    -409.420E-06     127.777E-06     374.892E-06
             580              88    -213.652E-06    -599.987E-06     206.115E-06     705.189E-06
             580             553    -116.480E-06    -234.466E-06     110.689E-06     325.525E-06
             580             563    -271.437E-06    -286.821E-06     179.561E-06     571.886E-06
             581             553    -116.480E-06    -234.466E-06     110.689E-06     325.525E-06
             581             554    -162.562E-06     27.9912E-06     79.2343E-06     197.459E-06
             581             563    -271.437E-06    -286.821E-06     179.561E-06     571.886E-06
             581             564    -287.070E-06     140.513E-06     128.369E-06     286.206E-06
             582             554    -162.562E-06     27.9912E-06     79.2343E-06     197.459E-06
             582             555    -123.597E-06     130.798E-06     53.4106E-06     59.2443E-06
             582             564    -287.070E-06     140.513E-06     128.369E-06     286.206E-06
             582             565    -168.613E-06     246.540E-06     85.0177E-06     52.0478E-06
             583             555    -123.597E-06     130.798E-06     53.4106E-06     59.2443E-06
             583             556    -50.2862E-06     127.490E-06     34.4576E-06    -25.3583E-06
             583             565    -168.613E-06     246.540E-06     85.0177E-06     52.0478E-06
             583             566    -42.8129E-06     201.459E-06     53.3708E-06    -54.1378E-06
             584             556    -50.2862E-06     127.490E-06     34.4576E-06    -25.3583E-06
             584             557     10.3295E-06     85.1519E-06     22.0222E-06    -52.2475E-06
             584             566    -42.8129E-06     201.459E-06     53.3708E-06    -54.1378E-06
             584             567     35.2452E-06     128.510E-06     33.9488E-06    -77.5587E-06
             585             557     10.3295E-06     85.1519E-06     22.0222E-06    -52.2475E-06
             585             558     40.8571E-06     42.0824E-06     14.6041E-06    -44.7332E-06
             585             567     35.2452E-06     128.510E-06     33.9488E-06    -77.5587E-06
             585             568     69.8607E-06     64.4253E-06     23.5234E-06    -61.2222E-06
             586             558     40.8571E-06     42.0824E-06     14.6041E-06    -44.7332E-06
             586             559     43.0387E-06     11.1153E-06     10.6505E-06    -22.2358E-06
             586             568     69.8607E-06     64.4253E-06     23.5234E-06    -61.2222E-06
             586             569     65.0425E-06     20.1580E-06     17.8506E-06    -28.2731E-06
             587             559     43.0387E-06     11.1153E-06     10.6505E-06    -22.2358E-06
             587             560     20.9215E-06    -4.63437E-06     8.43065E-06     1.30211E-06
             587             569     65.0425E-06     20.1580E-06     17.8506E-06    -28.2731E-06
             587             570     30.1969E-06    -2.28399E-06     15.1250E-06     3.47514E-06
             588             560     20.9215E-06    -4.63437E-06     8.43065E-06     1.30211E-06
             588             561    -16.6684E-06    -7.47212E-06     7.13605E-06     15.7594E-06
             588             570     30.1969E-06    -2.28399E-06     15.1250E-06     3.47514E-06
             588             571    -24.5041E-06    -8.03722E-06     13.3772E-06     22.4261E-06
             589             561    -16.6684E-06    -7.47212E-06     7.13605E-06     15.7594E-06
             589             562    -59.5275E-06    -3.96564E-06     5.65564E-06     15.0857E-06
             589             571    -24.5041E-06    -8.03722E-06     13.3772E-06     22.4261E-06
             589             572    -86.0913E-06    -4.24883E-06     11.6351E-06     20.8961E-06
             590             116    -116.954E-06    -955.754E-09     10.6502E-06     14.5685E-06
             590             117    -80.7729E-06    -1.74746E-06     4.72533E-06     10.3110E-06
             590             562    -59.5275E-06    -3.96564E-06     5.65564E-06     15.0857E-06
             590             572    -86.0913E-06    -4.24883E-06     11.6351E-06     20.8961E-06
             591              88    -213.652E-06    -599.987E-06     206.115E-06     705.189E-06
             591              89    -514.839E-06    -739.254E-06     300.115E-06     1.25792E-03
             591             563    -271.437E-06    -286.821E-06     179.561E-06     571.886E-06
             591             573    -534.693E-06    -209.234E-06     276.208E-06     924.458E-06
             592             563    -271.437E-06    -286.821E-06     179.561E-06     571.886E-06
             592             564    -287.070E-06     140.513E-06     128.369E-06     286.206E-06
             592             573    -534.693E-06    -209.234E-06     276.208E-06     924.458E-06
             592             574    -415.226E-06     396.486E-06     209.661E-06     346.453E-06
             593             564    -287.070E-06     140.513E-06     128.369E-06     286.206E-06
             593             565    -168.613E-06     246.540E-06     85.0177E-06     52.0478E-06
             593             574    -415.226E-06     396.486E-06     209.661E-06     346.453E-06
             593             575    -175.918E-06     416.355E-06     131.707E-06     18.0677E-06
             594             565    -168.613E-06     246.540E-06     85.0177E-06     52.0478E-06
             594             566    -42.8129E-06     201.459E-06     53.3708E-06    -54.1378E-06
             594             575    -175.918E-06     416.355E-06     131.707E-06     18.0677E-06
             594             576    -14.6242E-06     302.451E-06     79.3757E-06    -91.7029E-06
             595             566    -42.8129E-06     201.459E-06     53.3708E-06    -54.1378E-06
             595             567     35.2452E-06     128.510E-06     33.9488E-06    -77.5587E-06
             595             576    -14.6242E-06     302.451E-06     79.3757E-06    -91.7029E-06
             595             577     75.9077E-06     189.312E-06     52.0040E-06    -109.481E-06
             596             567     35.2452E-06     128.510E-06     33.9488E-06    -77.5587E-06
             596             568     69.8607E-06     64.4253E-06     23.5234E-06    -61.2222E-06
             596             577     75.9077E-06     189.312E-06     52.0040E-06    -109.481E-06
             596             578     107.818E-06     96.5919E-06     36.8380E-06    -80.2853E-06
             597             568     69.8607E-06     64.4253E-06     23.5234E-06    -61.2222E-06
             597             569     65.0425E-06     20.1580E-06     17.8506E-06    -28.2731E-06
             597             578     107.818E-06     96.5919E-06     36.8380E-06    -80.2853E-06
             597             579     91.3447E-06     35.9795E-06     29.3129E-06    -35.2445E-06
             598             569     65.0425E-06     20.1580E-06     17.8506E-06    -28.2731E-06
             598             570     30.1969E-06    -2.28399E-06     15.1250E-06     3.47514E-06
             598             579     91.3447E-06     35.9795E-06     29.3129E-06    -35.2445E-06
             598             580     38.3178E-06     3.71845E-06     25.4147E-06     5.73623E-06
             599             570     30.1969E-06    -2.28399E-06     15.1250E-06     3.47514E-06
             599             571    -24.5041E-06    -8.03722E-06     13.3772E-06     22.4261E-06
             599             580     38.3178E-06     3.71845E-06     25.4147E-06     5.73623E-06
             599             581    -37.9292E-06    -6.19075E-06     23.3016E-06     29.4369E-06
             600             571    -24.5041E-06    -8.03722E-06     13.3772E-06     22.4261E-06
             600             572    -86.0913E-06    -4.24883E-06     11.6351E-06     20.8961E-06
             600             581    -37.9292E-06    -6.19075E-06     23.3016E-06     29.4369E-06
             600             582    -123.781E-06    -4.25903E-06     20.8301E-06     27.5678E-06
             601             115    -167.256E-06    -1.71965E-06     19.2865E-06     18.9859E-06
             601             116    -116.954E-06    -955.754E-09     10.6502E-06     14.5685E-06
             601             572    -86.0913E-06    -4.24883E-06     11.6351E-06     20.8961E-06
             601             582    -123.781E-06    -4.25903E-06     20.8301E-06     27.5678E-06
             602              89    -514.839E-06    -739.254E-06     300.115E-06     1.25792E-03
             602              90    -894.580E-06    -513.486E-06     154.907E-06     1.95962E-03
             602             573    -534.693E-06    -209.234E-06     276.208E-06     924.458E-06
             602             583    -775.389E-06     225.103E-06     304.764E-06     1.29682E-03
             603             573    -534.693E-06    -209.234E-06     276.208E-06     924.458E-06
             603             574    -415.226E-06     396.486E-06     209.661E-06     346.453E-06
             603             583    -775.389E-06     225.103E-06     304.764E-06     1.29682E-03
             603             584    -458.116E-06     849.323E-06     346.867E-06     348.372E-06
             604             574    -415.226E-06     396.486E-06     209.661E-06     346.453E-06
             604             575    -175.918E-06     416.355E-06     131.707E-06     18.0677E-06
             604             584    -458.116E-06     849.323E-06     346.867E-06     348.372E-06
             604             585    -148.484E-06     639.155E-06     191.363E-06    -27.5976E-06
             605             575    -175.918E-06     416.355E-06     131.707E-06     18.0677E-06
             605             576    -14.6242E-06     302.451E-06     79.3757E-06    -91.7029E-06
             605             585    -148.484E-06     639.155E-06     191.363E-06    -27.5976E-06
             605             586     32.2027E-06     443.671E-06     117.132E-06    -140.873E-06
             606             576    -14.6242E-06     302.451E-06     79.3757E-06    -91.7029E-06
             606             577     75.9077E-06     189.312E-06     52.0040E-06    -109.481E-06
             606             586     32.2027E-06     443.671E-06     117.132E-06    -140.873E-06
             606             587     129.776E-06     269.658E-06     77.6013E-06    -148.173E-06
             607             577     75.9077E-06     189.312E-06     52.0040E-06    -109.481E-06
             607             578     107.818E-06     96.5919E-06     36.8380E-06    -80.2853E-06
             607             587     129.776E-06     269.658E-06     77.6013E-06    -148.173E-06
             607             588     152.759E-06     142.748E-06     57.1118E-06    -102.409E-06
             608             578     107.818E-06     96.5919E-06     36.8380E-06    -80.2853E-06
             608             579     91.3447E-06     35.9795E-06     29.3129E-06    -35.2445E-06
             608             588     152.759E-06     142.748E-06     57.1118E-06    -102.409E-06
             608             589     117.742E-06     60.5853E-06     46.4136E-06    -43.8404E-06
             609             579     91.3447E-06     35.9795E-06     29.3129E-06    -35.2445E-06
             609             580     38.3178E-06     3.71845E-06     25.4147E-06     5.73623E-06
             609             589     117.742E-06     60.5853E-06     46.4136E-06    -43.8404E-06
             609             590     42.3068E-06     16.3169E-06     41.3555E-06     6.35929E-06
             610             580     38.3178E-06     3.71845E-06     25.4147E-06     5.73623E-06
             610             581    -37.9292E-06    -6.19075E-06     23.3016E-06     29.4369E-06
             610             590     42.3068E-06     16.3169E-06     41.3555E-06     6.35929E-06
             610             591    -59.7297E-06    -1.51068E-06     38.3472E-06     35.4519E-06
             611             581    -37.9292E-06    -6.19075E-06     23.3016E-06     29.4369E-06
             611             582    -123.781E-06    -4.25903E-06     20.8301E-06     27.5678E-06
             611             591    -59.7297E-06    -1.51068E-06     38.3472E-06     35.4519E-06
             611             592    -175.072E-06    -2.60751E-06     35.3080E-06     33.3223E-06
             612             114    -234.252E-06    -562.955E-09     33.4756E-06     23.8438E-06
             612             115    -167.256E-06    -1.71965E-06     19.2865E-06     18.9859E-06
             612             582    -123.781E-06    -4.25903E-06     20.8301E-06     27.5678E-06
             612             592    -175.072E-06    -2.60751E-06     35.3080E-06     33.3223E-06
             613              90    -894.580E-06    -513.486E-06     154.907E-06     1.95962E-03
             613              91    -1.43411E-03     558.520E-06    -1.05528E-03     2.22850E-03
             613             583    -775.389E-06     225.103E-06     304.764E-06     1.29682E-03
             613             593    -1.10052E-03     1.14713E-03    -187.636E-06     1.37206E-03
             614             583    -775.389E-06     225.103E-06     304.764E-06     1.29682E-03
             614             584    -458.116E-06     849.323E-06     346.867E-06     348.372E-06
             614             593    -1.10052E-03     1.14713E-03    -187.636E-06     1.37206E-03
             614             594    -515.566E-06     1.42794E-03     509.251E-06     265.631E-06
             615             584    -458.116E-06     849.323E-06     346.867E-06     348.372E-06
             615             585    -148.484E-06     639.155E-06     191.363E-06    -27.5976E-06
             615             594    -515.566E-06     1.42794E-03     509.251E-06     265.631E-06
             615             595    -126.752E-06     944.441E-06     270.761E-06    -94.6650E-06
             616             585    -148.484E-06     639.155E-06     191.363E-06    -27.5976E-06
             616             586     32.2027E-06     443.671E-06     117.132E-06    -140.873E-06
             616             595    -126.752E-06     944.441E-06     270.761E-06    -94.6650E-06
             616             596     91.2258E-06     623.002E-06     168.352E-06    -214.306E-06
             617             586     32.2027E-06     443.671E-06     117.132E-06    -140.873E-06
             617             587     129.776E-06     269.658E-06     77.6013E-06    -148.173E-06
             617             596     91.2258E-06     623.002E-06     168.352E-06    -214.306E-06
             617             597     193.061E-06     373.088E-06     114.464E-06    -194.974E-06
             618             587     129.776E-06     269.658E-06     77.6013E-06    -148.173E-06
             618             588     152.759E-06     142.748E-06     57.1118E-06    -102.409E-06
             618             597     193.061E-06     373.088E-06     114.464E-06    -194.974E-06
             618             598     197.310E-06     203.861E-06     86.0042E-06    -128.972E-06
             619             588     152.759E-06     142.748E-06     57.1118E-06    -102.409E-06
             619             589     117.742E-06     60.5853E-06     46.4136E-06    -43.8404E-06
             619             598     197.310E-06     203.861E-06     86.0042E-06    -128.972E-06
             619             599     138.734E-06     97.7856E-06     71.8707E-06    -56.3153E-06
             620             589     117.742E-06     60.5853E-06     46.4136E-06    -43.8404E-06
             620             590     42.3068E-06     16.3169E-06     41.3555E-06     6.35929E-06
             620             599     138.734E-06     97.7856E-06     71.8707E-06    -56.3153E-06
             620             600     37.5126E-06     36.6807E-06     64.8099E-06     2.86921E-06
             621             590     42.3068E-06     16.3169E-06     41.3555E-06     6.35929E-06
             621             591    -59.7297E-06    -1.51068E-06     38.3472E-06     35.4519E-06
             621             600     37.5126E-06     36.6807E-06     64.8099E-06     2.86921E-06
             621             601    -92.9847E-06     8.48592E-06     61.0661E-06     37.1369E-06
             622             591    -59.7297E-06    -1.51068E-06     38.3472E-06     35.4519E-06
             622             592    -175.072E-06    -2.60751E-06     35.3080E-06     33.3223E-06
             622             601    -92.9847E-06     8.48592E-06     61.0661E-06     37.1369E-06
             622             602    -241.427E-06     382.627E-09     57.3426E-06     37.2083E-06
             623             113    -319.087E-06     391.292E-09     55.1885E-06     26.8849E-06
             623             114    -234.252E-06    -562.955E-09     33.4756E-06     23.8438E-06
             623             592    -175.072E-06    -2.60751E-06     35.3080E-06     33.3223E-06
             623             602    -241.427E-06     382.627E-09     57.3426E-06     37.2083E-06
             624              91    -1.43411E-03     558.520E-06    -1.05528E-03     2.22850E-03
             624              92    -1.89583E-03     2.48464E-03    -2.69462E-03     1.77851E-03
             624             593    -1.10052E-03     1.14713E-03    -187.636E-06     1.37206E-03
             624             603    -1.45673E-03     2.40153E-03    -933.852E-06     991.869E-06
             625             593    -1.10052E-03     1.14713E-03    -187.636E-06     1.37206E-03
             625             594    -515.566E-06     1.42794E-03     509.251E-06     265.631E-06
             625             603    -1.45673E-03     2.40153E-03    -933.852E-06     991.869E-06
             625             604    -671.765E-06     1.97156E-03     645.544E-06     18.6655E-06
             626             594    -515.566E-06     1.42794E-03     509.251E-06     265.631E-06
             626             595    -126.752E-06     944.441E-06     270.761E-06    -94.6650E-06
             626             604    -671.765E-06     1.97156E-03     645.544E-06     18.6655E-06
             626             605    -117.522E-06     1.32670E-03     374.538E-06    -251.379E-06
             627             595    -126.752E-06     944.441E-06     270.761E-06    -94.6650E-06
             627             596     91.2258E-06     623.002E-06     168.352E-06    -214.306E-06
             627             605    -117.522E-06     1.32670E-03     374.538E-06    -251.379E-06
             627             606     167.576E-06     826.704E-06     236.632E-06    -316.707E-06
             628             596     91.2258E-06     623.002E-06     168.352E-06    -214.306E-06
             628             597     193.061E-06     373.088E-06     114.464E-06    -194.974E-06
             628             606     167.576E-06     826.704E-06     236.632E-06    -316.707E-06
             628             607     253.245E-06     495.285E-06     163.875E-06    -254.357E-06
             629             597     193.061E-06     373.088E-06     114.464E-06    -194.974E-06
             629             598     197.310E-06     203.861E-06     86.0042E-06    -128.972E-06
             629             607     253.245E-06     495.285E-06     163.875E-06    -254.357E-06
             629             608     232.805E-06     281.422E-06     126.652E-06    -162.663E-06
             630             598     197.310E-06     203.861E-06     86.0042E-06    -128.972E-06
             630             599     138.734E-06     97.7856E-06     71.8707E-06    -56.3153E-06
             630             608     232.805E-06     281.422E-06     126.652E-06    -162.663E-06
             630             609     146.436E-06     147.626E-06     107.770E-06    -76.0924E-06
             631             599     138.734E-06     97.7856E-06     71.8707E-06    -56.3153E-06
             631             600     37.5126E-06     36.6807E-06     64.8099E-06     2.86921E-06
             631             609     146.436E-06     147.626E-06     107.770E-06    -76.0924E-06
             631             610     17.8525E-06     67.9990E-06     98.6472E-06    -9.07731E-06
             632             600     37.5126E-06     36.6807E-06     64.8099E-06     2.86921E-06
             632             601    -92.9847E-06     8.48592E-06     61.0661E-06     37.1369E-06
             632             610     17.8525E-06     67.9990E-06     98.6472E-06    -9.07731E-06
             632             611    -139.728E-06     24.0181E-06     94.1119E-06     30.9353E-06
             633             601    -92.9847E-06     8.48592E-06     61.0661E-06     37.1369E-06
             633             602    -241.427E-06     382.627E-09     57.3426E-06     37.2083E-06
             633             611    -139.728E-06     24.0181E-06     94.1119E-06     30.9353E-06
             633             612    -322.967E-06     5.93831E-06     90.2787E-06     35.4873E-06
             634             112    -420.221E-06     1.55959E-06     88.0053E-06     27.9728E-06
             634             113    -319.087E-06     391.292E-09     55.1885E-06     26.8849E-06
             634             602    -241.427E-06     382.627E-09     57.3426E-06     37.2083E-06
             634             612    -322.967E-06     5.93831E-06     90.2787E-06     35.4873E-06
             635              92    -1.89583E-03     2.48464E-03    -2.69462E-03     1.77851E-03
             635              93    -2.03055E-03     4.49555E-03    -3.75165E-03     816.781E-06
             635             603    -1.45673E-03     2.40153E-03    -933.852E-06     991.869E-06
             635             613    -1.55759E-03     3.65818E-03    -1.39184E-03     312.151E-06
             636             603    -1.45673E-03     2.40153E-03    -933.852E-06     991.869E-06
             636             604    -671.765E-06     1.97156E-03     645.544E-06     18.6655E-06
             636             613    -1.55759E-03     3.65818E-03    -1.39184E-03     312.151E-06
             636             614    -666.580E-06     2.46680E-03     796.366E-06    -356.238E-06
             637             604    -671.765E-06     1.97156E-03     645.544E-06     18.6655E-06
             637             605    -117.522E-06     1.32670E-03     374.538E-06    -251.379E-06
             637             614    -666.580E-06     2.46680E-03     796.366E-06    -356.238E-06
             637             615    -36.0464E-06     1.70156E-03     503.078E-06    -512.497E-06
             638             605    -117.522E-06     1.32670E-03     374.538E-06    -251.379E-06
             638             606     167.576E-06     826.704E-06     236.632E-06    -316.707E-06
             638             615    -36.0464E-06     1.70156E-03     503.078E-06    -512.497E-06
             638             616     240.565E-06     1.03723E-03     319.980E-06    -450.167E-06
             639             606     167.576E-06     826.704E-06     236.632E-06    -316.707E-06
             639             607     253.245E-06     495.285E-06     163.875E-06    -254.357E-06
             639             616     240.565E-06     1.03723E-03     319.980E-06    -450.167E-06
             639             617     301.438E-06     625.652E-06     227.991E-06    -330.499E-06
             640             607     253.245E-06     495.285E-06     163.875E-06    -254.357E-06
             640             608     232.805E-06     281.422E-06     126.652E-06    -162.663E-06
             640             617     301.438E-06     625.652E-06     227.991E-06    -330.499E-06
             640             618     247.921E-06     370.369E-06     180.851E-06    -207.650E-06
             641             608     232.805E-06     281.422E-06     126.652E-06    -162.663E-06
             641             609     146.436E-06     147.626E-06     107.770E-06    -76.0924E-06
             641             618     247.921E-06     370.369E-06     180.851E-06    -207.650E-06
             641             619     129.990E-06     210.996E-06     156.610E-06    -107.246E-06
             642             609     146.436E-06     147.626E-06     107.770E-06    -76.0924E-06
             642             610     17.8525E-06     67.9990E-06     98.6472E-06    -9.07731E-06
             642             619     129.990E-06     210.996E-06     156.610E-06    -107.246E-06
             642             620    -21.3136E-06     109.645E-06     145.572E-06    -35.2604E-06
             643             610     17.8525E-06     67.9990E-06     98.6472E-06    -9.07731E-06
             643             611    -139.728E-06     24.0181E-06     94.1119E-06     30.9353E-06
             643             620    -21.3136E-06     109.645E-06     145.572E-06    -35.2604E-06
             643             621    -202.077E-06     46.6765E-06     140.728E-06     11.2717E-06
             644             611    -139.728E-06     24.0181E-06     94.1119E-06     30.9353E-06
             644             612    -322.967E-06     5.93831E-06     90.2787E-06     35.4873E-06
             644             621    -202.077E-06     46.6765E-06     140.728E-06     11.2717E-06
             644             622    -415.869E-06     14.1723E-06     138.154E-06     25.9454E-06
             645             111    -532.525E-06     5.86094E-06     137.064E-06     23.6763E-06
             645             112    -420.221E-06     1.55959E-06     88.0053E-06     27.9728E-06
             645             612    -322.967E-06     5.93831E-06     90.2787E-06     35.4873E-06
             645             622    -415.869E-06     14.1723E-06     138.154E-06     25.9454E-06
             646              93    -2.03055E-03     4.49555E-03    -3.75165E-03     816.781E-06
             646              94    -2.01133E-03     5.75741E-03    -4.56853E-03    -549.168E-06
             646             613    -1.55759E-03     3.65818E-03    -1.39184E-03     312.151E-06
             646             623    -1.47868E-03     4.53834E-03    -2.09325E-03    -672.647E-06
             647             613    -1.55759E-03     3.65818E-03    -1.39184E-03     312.151E-06
             647             614    -666.580E-06     2.46680E-03     796.366E-06    -356.238E-06
             647             623    -1.47868E-03     4.53834E-03    -2.09325E-03    -672.647E-06
             647             624    -525.589E-06     2.91561E-03     584.259E-06    -861.302E-06
             648             614    -666.580E-06     2.46680E-03     796.366E-06    -356.238E-06
             648             615    -36.0464E-06     1.70156E-03     503.078E-06    -512.497E-06
             648             624    -525.589E-06     2.91561E-03     584.259E-06    -861.302E-06
             648             625     71.0071E-06     2.00870E-03     634.997E-06    -826.413E-06
             649             615    -36.0464E-06     1.70156E-03     503.078E-06    -512.497E-06
             649             616     240.565E-06     1.03723E-03     319.980E-06    -450.167E-06
             649             625     71.0071E-06     2.00870E-03     634.997E-06    -826.413E-06
             649             626     304.386E-06     1.21775E-03     415.948E-06    -623.436E-06
             650             616     240.565E-06     1.03723E-03     319.980E-06    -450.167E-06
             650             617     301.438E-06     625.652E-06     227.991E-06    -330.499E-06
             650             626     304.386E-06     1.21775E-03     415.948E-06    -623.436E-06
             650             627     326.250E-06     748.859E-06     307.774E-06    -424.686E-06
             651             617     301.438E-06     625.652E-06     227.991E-06    -330.499E-06
             651             618     247.921E-06     370.369E-06     180.851E-06    -207.650E-06
             651             627     326.250E-06     748.859E-06     307.774E-06    -424.686E-06
             651             628     225.676E-06     461.710E-06     248.547E-06    -265.657E-06
             652             618     247.921E-06     370.369E-06     180.851E-06    -207.650E-06
             652             619     129.990E-06     210.996E-06     156.610E-06    -107.246E-06
             652             628     225.676E-06     461.710E-06     248.547E-06    -265.657E-06
             652             629     80.9921E-06     283.825E-06     220.521E-06    -157.654E-06
             653             619     129.990E-06     210.996E-06     156.610E-06    -107.246E-06
             653             620    -21.3136E-06     109.645E-06     145.572E-06    -35.2604E-06
             653             629     80.9921E-06     283.825E-06     220.521E-06    -157.654E-06
             653             630    -85.5603E-06     160.424E-06     207.903E-06    -81.2788E-06
             654             620    -21.3136E-06     109.645E-06     145.572E-06    -35.2604E-06
             654             621    -202.077E-06     46.6765E-06     140.728E-06     11.2717E-06
             654             630    -85.5603E-06     160.424E-06     207.903E-06    -81.2788E-06
             654             631    -277.388E-06     75.6482E-06     204.590E-06    -27.3250E-06
             655             621    -202.077E-06     46.6765E-06     140.728E-06     11.2717E-06
             655             622    -415.869E-06     14.1723E-06     138.154E-06     25.9454E-06
             655             631    -277.388E-06     75.6482E-06     204.590E-06    -27.3250E-06
             655             632    -513.539E-06     24.3353E-06     204.911E-06     3.99738E-06
             656             110    -644.945E-06     6.33777E-06     205.349E-06     12.9268E-06
             656             111    -532.525E-06     5.86094E-06     137.064E-06     23.6763E-06
             656             622    -415.869E-06     14.1723E-06     138.154E-06     25.9454E-06
             656             632    -513.539E-06     24.3353E-06     204.911E-06     3.99738E-06
             657              94    -2.01133E-03     5.75741E-03    -4.56853E-03    -549.168E-06
             657              95    -1.57694E-03     5.97907E-03    -4.61439E-03    -2.06999E-03
             657             623    -1.47868E-03     4.53834E-03    -2.09325E-03    -672.647E-06
             657             633    -1.15488E-03     4.86090E-03    -2.80850E-03    -1.86772E-03
             658             623    -1.47868E-03     4.53834E-03    -2.09325E-03    -672.647E-06
             658             624    -525.589E-06     2.91561E-03     584.259E-06    -861.302E-06
             658             633    -1.15488E-03     4.86090E-03    -2.80850E-03    -1.86772E-03
             658             634    -366.732E-06     3.18416E-03    -61.7894E-06    -1.53595E-03
             659             624    -525.589E-06     2.91561E-03     584.259E-06    -861.302E-06
             659             625     71.0071E-06     2.00870E-03     634.997E-06    -826.413E-06
             659             634    -366.732E-06     3.18416E-03    -61.7894E-06    -1.53595E-03
             659             635     176.949E-06     2.16164E-03     750.770E-06    -1.20109E-03
             660             625     71.0071E-06     2.00870E-03     634.997E-06    -826.413E-06
             660             626     304.386E-06     1.21775E-03     415.948E-06    -623.436E-06
             660             635     176.949E-06     2.16164E-03     750.770E-06    -1.20109E-03
             660             636     359.851E-06     1.34946E-03     529.229E-06    -823.173E-06
             661             626     304.386E-06     1.21775E-03     415.948E-06    -623.436E-06
             661             627     326.250E-06     748.859E-06     307.774E-06    -424.686E-06
             661             636     359.851E-06     1.34946E-03     529.229E-06    -823.173E-06
             661             637     298.303E-06     830.923E-06     394.264E-06    -533.715E-06
             662             627     326.250E-06     748.859E-06     307.774E-06    -424.686E-06
             662             628     225.676E-06     461.710E-06     248.547E-06    -265.657E-06
             662             637     298.303E-06     830.923E-06     394.264E-06    -533.715E-06
             662             638     152.313E-06     546.282E-06     330.221E-06    -346.422E-06
             663             628     225.676E-06     461.710E-06     248.547E-06    -265.657E-06
             663             629     80.9921E-06     283.825E-06     220.521E-06    -157.654E-06
             663             638     152.313E-06     546.282E-06     330.221E-06    -346.422E-06
             663             639    -7.53580E-06     354.525E-06     299.150E-06    -231.621E-06
             664             629     80.9921E-06     283.825E-06     220.521E-06    -157.654E-06
             664             630    -85.5603E-06     160.424E-06     207.903E-06    -81.2788E-06
             664             639    -7.53580E-06     354.525E-06     299.150E-06    -231.621E-06
             664             640    -174.693E-06     216.196E-06     288.129E-06    -153.698E-06
             665             630    -85.5603E-06     160.424E-06     207.903E-06    -81.2788E-06
             665             631    -277.388E-06     75.6482E-06     204.590E-06    -27.3250E-06
             665             640    -174.693E-06     216.196E-06     288.129E-06    -153.698E-06
             665             641    -361.950E-06     107.974E-06     288.141E-06    -89.9749E-06
             666             631    -277.388E-06     75.6482E-06     204.590E-06    -27.3250E-06
             666             632    -513.539E-06     24.3353E-06     204.911E-06     3.99738E-06
             666             641    -361.950E-06     107.974E-06     288.141E-06    -89.9749E-06
             666             642    -602.130E-06     37.1504E-06     295.799E-06    -33.1079E-06
             667             109    -741.491E-06     13.6387E-06     301.127E-06    -6.44827E-06
             667             110    -644.945E-06     6.33777E-06     205.349E-06     12.9268E-06
             667             632    -513.539E-06     24.3353E-06     204.911E-06     3.99738E-06
             667             642    -602.130E-06     37.1504E-06     295.799E-06    -33.1079E-06
             668              95    -1.57694E-03     5.97907E-03    -4.61439E-03    -2.06999E-03
             668              96    -890.128E-06     5.27027E-03    -3.90279E-03    -3.50725E-03
             668             633    -1.15488E-03     4.86090E-03    -2.80850E-03    -1.86772E-03
             668             643    -572.004E-06     4.62731E-03    -3.18983E-03    -3.04027E-03
             669             633    -1.15488E-03     4.86090E-03    -2.80850E-03    -1.86772E-03
             669             634    -366.732E-06     3.18416E-03    -61.7894E-06    -1.53595E-03
             669             643    -572.004E-06     4.62731E-03    -3.18983E-03    -3.04027E-03
             669             644    -35.4296E-06     3.23857E-03    -1.01595E-03    -2.26339E-03
             670             634    -366.732E-06     3.18416E-03    -61.7894E-06    -1.53595E-03
             670             635     176.949E-06     2.16164E-03     750.770E-06    -1.20109E-03
             670             644    -35.4296E-06     3.23857E-03    -1.01595E-03    -2.26339E-03
             670             645     284.018E-06     2.06981E-03     579.615E-06    -1.64214E-03
             671             635     176.949E-06     2.16164E-03     750.770E-06    -1.20109E-03
             671             636     359.851E-06     1.34946E-03     529.229E-06    -823.173E-06
             671             645     284.018E-06     2.06981E-03     579.615E-06    -1.64214E-03
             671             646     331.588E-06     1.33378E-03     620.730E-06    -1.06279E-03
             672             636     359.851E-06     1.34946E-03     529.229E-06    -823.173E-06
             672             637     298.303E-06     830.923E-06     394.264E-06    -533.715E-06
             672             646     331.588E-06     1.33378E-03     620.730E-06    -1.06279E-03
             672             647     195.941E-06     855.192E-06     483.703E-06    -665.119E-06
             673             637     298.303E-06     830.923E-06     394.264E-06    -533.715E-06
             673             638     152.313E-06     546.282E-06     330.221E-06    -346.422E-06
             673             647     195.941E-06     855.192E-06     483.703E-06    -665.119E-06
             673             648     27.5826E-06     590.359E-06     420.431E-06    -454.991E-06
             674             638     152.313E-06     546.282E-06     330.221E-06    -346.422E-06
             674             639    -7.53580E-06     354.525E-06     299.150E-06    -231.621E-06
             674             648     27.5826E-06     590.359E-06     420.431E-06    -454.991E-06
             674             649    -138.179E-06     413.098E-06     392.271E-06    -332.466E-06
             675             639    -7.53580E-06     354.525E-06     299.150E-06    -231.621E-06
             675             640    -174.693E-06     216.196E-06     288.129E-06    -153.698E-06
             675             649    -138.179E-06     413.098E-06     392.271E-06    -332.466E-06
             675             650    -285.875E-06     265.583E-06     385.682E-06    -256.948E-06
             676             640    -174.693E-06     216.196E-06     288.129E-06    -153.698E-06
             676             641    -361.950E-06     107.974E-06     288.141E-06    -89.9749E-06
             676             650    -285.875E-06     265.583E-06     385.682E-06    -256.948E-06
             676             651    -442.363E-06     139.766E-06     394.739E-06    -179.419E-06
             677             641    -361.950E-06     107.974E-06     288.141E-06    -89.9749E-06
             677             642    -602.130E-06     37.1504E-06     295.799E-06    -33.1079E-06
             677             651    -442.363E-06     139.766E-06     394.739E-06    -179.419E-06
             677             652    -664.989E-06     48.3696E-06     413.526E-06    -86.0999E-06
             678             108    -799.198E-06     13.2434E-06     425.048E-06    -36.8665E-06
             678             109    -741.491E-06     13.6387E-06     301.127E-06    -6.44827E-06
             678             642    -602.130E-06     37.1504E-06     295.799E-06    -33.1079E-06
             678             652    -664.989E-06     48.3696E-06     413.526E-06    -86.0999E-06
             679              96    -890.128E-06     5.27027E-03    -3.90279E-03    -3.50725E-03
             679              97    -89.5624E-06     4.11300E-03    -3.00810E-03    -4.65129E-03
             679             643    -572.004E-06     4.62731E-03    -3.18983E-03    -3.04027E-03
             679             653     34.4995E-06     3.96084E-03    -3.52320E-03    -4.06664E-03
             680             643    -572.004E-06     4.62731E-03    -3.18983E-03    -3.04027E-03
             680             644    -35.4296E-06     3.23857E-03    -1.01595E-03    -2.26339E-03
             680             653     34.4995E-06     3.96084E-03    -3.52320E-03    -4.06664E-03
             680             654     264.195E-06     3.06112E-03    -2.21270E-03    -3.02698E-03
             681             644    -35.4296E-06     3.23857E-03    -1.01595E-03    -2.26339E-03
             681             645     284.018E-06     2.06981E-03     579.615E-06    -1.64214E-03
             681             654     264.195E-06     3.06112E-03    -2.21270E-03    -3.02698E-03
             681             655     351.964E-06     1.76594E-03     167.295E-06    -2.09302E-03
             682             645     284.018E-06     2.06981E-03     579.615E-06    -1.64214E-03
             682             646     331.588E-06     1.33378E-03     620.730E-06    -1.06279E-03
             682             655     351.964E-06     1.76594E-03     167.295E-06    -2.09302E-03
             682             656     237.703E-06     1.05997E-03     664.976E-06    -1.31292E-03
             683             646     331.588E-06     1.33378E-03     620.730E-06    -1.06279E-03
             683             647     195.941E-06     855.192E-06     483.703E-06    -665.119E-06
             683             656     237.703E-06     1.05997E-03     664.976E-06    -1.31292E-03
             683             657     46.5889E-06     769.998E-06     569.533E-06    -832.929E-06
             684             647     195.941E-06     855.192E-06     483.703E-06    -665.119E-06
             684             648     27.5826E-06     590.359E-06     420.431E-06    -454.991E-06
             684             657     46.5889E-06     769.998E-06     569.533E-06    -832.929E-06
             684             658    -153.388E-06     569.739E-06     511.897E-06    -577.776E-06
             685             648     27.5826E-06     590.359E-06     420.431E-06    -454.991E-06
             685             649    -138.179E-06     413.098E-06     392.271E-06    -332.466E-06
             685             658    -153.388E-06     569.739E-06     511.897E-06    -577.776E-06
             685             659    -307.121E-06     434.148E-06     493.770E-06    -467.174E-06
             686             649    -138.179E-06     413.098E-06     392.271E-06    -332.466E-06
             686             650    -285.875E-06     265.583E-06     385.682E-06    -256.948E-06
             686             659    -307.121E-06     434.148E-06     493.770E-06    -467.174E-06
             686             660    -399.096E-06     295.944E-06     501.799E-06    -389.204E-06
             687             650    -285.875E-06     265.583E-06     385.682E-06    -256.948E-06
             687             651    -442.363E-06     139.766E-06     394.739E-06    -179.419E-06
             687             660    -399.096E-06     295.944E-06     501.799E-06    -389.204E-06
             687             661    -504.583E-06     161.604E-06     523.979E-06    -291.167E-06
             688             651    -442.363E-06     139.766E-06     394.739E-06    -179.419E-06
             688             652    -664.989E-06     48.3696E-06     413.526E-06    -86.0999E-06
             688             661    -504.583E-06     161.604E-06     523.979E-06    -291.167E-06
             688             662    -679.459E-06     58.4505E-06     561.637E-06    -155.710E-06
             689             107    -792.350E-06     18.3959E-06     584.362E-06    -74.6149E-06
             689             108    -799.198E-06     13.2434E-06     425.048E-06    -36.8665E-06
             689             652    -664.989E-06     48.3696E-06     413.526E-06    -86.0999E-06
             689             662    -679.459E-06     58.4505E-06     561.637E-06    -155.710E-06
             690               3     723.562E-06     2.82349E-03    -2.19787E-03    -5.33577E-03
             690              97    -89.5624E-06     4.11300E-03    -3.00810E-03    -4.65129E-03
             690             122     700.621E-06     3.14414E-03    -3.38039E-03    -4.73909E-03
             690             653     34.4995E-06     3.96084E-03    -3.52320E-03    -4.06664E-03
             691             122     700.621E-06     3.14414E-03    -3.38039E-03    -4.73909E-03
             691             123     638.382E-06     2.72562E-03    -2.86871E-03    -3.67175E-03
             691             653     34.4995E-06     3.96084E-03    -3.52320E-03    -4.06664E-03
             691             654     264.195E-06     3.06112E-03    -2.21270E-03    -3.02698E-03
             692             123     638.382E-06     2.72562E-03    -2.86871E-03    -3.67175E-03
             692             124     431.308E-06     1.27656E-03    -382.593E-06    -2.52430E-03
             692             654     264.195E-06     3.06112E-03    -2.21270E-03    -3.02698E-03
             692             655     351.964E-06     1.76594E-03     167.295E-06    -2.09302E-03
             693             124     431.308E-06     1.27656E-03    -382.593E-06    -2.52430E-03
             693             125     143.186E-06     548.197E-06     534.935E-06    -1.52587E-03
             693             655     351.964E-06     1.76594E-03     167.295E-06    -2.09302E-03
             693             656     237.703E-06     1.05997E-03     664.976E-06    -1.31292E-03
             694             125     143.186E-06     548.197E-06     534.935E-06    -1.52587E-03
             694             126    -154.936E-06     490.148E-06     621.842E-06    -986.376E-06
             694             656     237.703E-06     1.05997E-03     664.976E-06    -1.31292E-03
             694             657     46.5889E-06     769.998E-06     569.533E-06    -832.929E-06
             695             126    -154.936E-06     490.148E-06     621.842E-06    -986.376E-06
             695             127    -392.783E-06     451.941E-06     590.487E-06    -714.520E-06
             695             657     46.5889E-06     769.998E-06     569.533E-06    -832.929E-06
             695             658    -153.388E-06     569.739E-06     511.897E-06    -577.776E-06
             696             127    -392.783E-06     451.941E-06     590.487E-06    -714.520E-06
             696             128    -470.271E-06     402.669E-06     604.248E-06    -618.741E-06
             696             658    -153.388E-06     569.739E-06     511.897E-06    -577.776E-06
             696             659    -307.121E-06     434.148E-06     493.770E-06    -467.174E-06
             697             128    -470.271E-06     402.669E-06     604.248E-06    -618.741E-06
             697             129    -497.243E-06     292.257E-06     628.080E-06    -536.782E-06
             697             659    -307.121E-06     434.148E-06     493.770E-06    -467.174E-06
             697             660    -399.096E-06     295.944E-06     501.799E-06    -389.204E-06
             698             129    -497.243E-06     292.257E-06     628.080E-06    -536.782E-06
             698             130    -525.806E-06     167.397E-06     671.117E-06    -417.928E-06
             698             660    -399.096E-06     295.944E-06     501.799E-06    -389.204E-06
             698             661    -504.583E-06     161.604E-06     523.979E-06    -291.167E-06
             699             130    -525.806E-06     167.397E-06     671.117E-06    -417.928E-06
             699             131    -629.642E-06     58.1673E-06     727.957E-06    -228.589E-06
             699             661    -504.583E-06     161.604E-06     523.979E-06    -291.167E-06
             699             662    -679.459E-06     58.4505E-06     561.637E-06    -155.710E-06
             700               7    -714.469E-06     14.0362E-06     759.185E-06    -117.927E-06
             700             107    -792.350E-06     18.3959E-06     584.362E-06    -74.6149E-06
             700             131    -629.642E-06     58.1673E-06     727.957E-06    -228.589E-06
             700             662    -679.459E-06     58.4505E-06     561.637E-06    -155.710E-06


